&CONTROL
calculation = "scf"
etot_conv_thr =   1.0000000000d-05
forc_conv_thr =   1.0000000000d-04
prefix = 'aiida'
pseudo_dir = '/opt/QEpot/SSSP_precision_pseudos/'
tprnfor = .true.
tstress = .true.
verbosity = 'high'
disk_io = 'none'
/
&SYSTEM
degauss =   2.2049585400d-02
ecutrho = 4.4000000000d+02
ecutwfc = 8.0000000000d+01
ibrav = 0
nat = 8
nosym = .false.
ntyp = 2
occupations = 'smearing'
smearing = 'cold'
/
&ELECTRONS
conv_thr =   2.0000000000d-10
electron_maxstep = 80
mixing_beta =   4.0000000000d-01
/
K_POINTS {automatic}
9 5 4 0 0 0
ATOMIC_SPECIES
B  10.81  B_pbe_v1.01.uspp.F.UPF
N  14.007  N.oncvpsp.upf
ATOMIC_POSITIONS {angstrom}
B 6.336063108736 0.001231896768 0.009724451969
B 2.473054966701 0.472533858665 2.383372145338
B 10.606963536193 2.03452900478 2.593018333504
B 6.525225701804 1.249023605773 2.088460415342
N 12.015095046699 2.30435960965 2.749578940068
N 6.191558092512 1.188435076248 0.660134764966
N 7.927779709988 1.521135343046 2.3288471192
N 3.837286354178 0.73730209439 2.540896926307
CELL_PARAMETERS {angstrom}
6.340015 0 0
-0.449112374033 2.343727042896 0
0.037164582858 0.007121594679 4.17840365538
!End