&CONTROL
calculation = "scf"
etot_conv_thr =   1.0000000000d-05
forc_conv_thr =   1.0000000000d-04
prefix = 'aiida'
pseudo_dir = '/opt/QEpot/SSSP_precision_pseudos/'
tprnfor = .true.
tstress = .true.
verbosity = 'high'
disk_io = 'none'
/
&SYSTEM
degauss =   2.2049585400d-02
ecutrho = 4.4000000000d+02
ecutwfc = 8.0000000000d+01
ibrav = 0
nat = 8
nosym = .false.
ntyp = 2
occupations = 'smearing'
smearing = 'cold'
/
&ELECTRONS
conv_thr =   2.0000000000d-10
electron_maxstep = 80
mixing_beta =   4.0000000000d-01
/
K_POINTS {automatic}
9 5 4 0 0 0
ATOMIC_SPECIES
B  10.81  B_pbe_v1.01.uspp.F.UPF
N  14.007  N.oncvpsp.upf
ATOMIC_POSITIONS {angstrom}
B 6.603321324442 0.009705833241 4.321816028849
B 2.54980387811 0.480456719348 2.480174971176
B 10.985609303941 2.106975224236 2.67073749101
B 6.744156042515 1.284191720741 2.174915461179
N 12.443148937622 2.386273569627 2.83279145219
N 6.415277353463 1.231193789439 0.670033446382
N 8.212419027693 1.575567749809 2.397297111292
N 3.978399589223 0.764231580148 2.616787262507
CELL_PARAMETERS {angstrom}
6.562471666667 0 0
-0.464870702947 2.425963079489 0
0.038468603309 0.007371475194 4.325014309955
!End