&CONTROL
calculation = "scf"
etot_conv_thr =   1.0000000000d-05
forc_conv_thr =   1.0000000000d-04
prefix = 'aiida'
pseudo_dir = '/opt/QEpot/SSSP_precision_pseudos/'
tprnfor = .true.
tstress = .true.
verbosity = 'high'
disk_io = 'none'
/
&SYSTEM
degauss =   2.2049585400d-02
ecutrho = 4.4000000000d+02
ecutwfc = 8.0000000000d+01
ibrav = 0
nat = 8
nosym = .false.
ntyp = 2
occupations = 'smearing'
smearing = 'cold'
/
&ELECTRONS
conv_thr =   2.0000000000d-10
electron_maxstep = 80
mixing_beta =   4.0000000000d-01
/
K_POINTS {automatic}
9 5 4 0 0 0
ATOMIC_SPECIES
B  10.81  B_pbe_v1.01.uspp.F.UPF
N  14.007  N.oncvpsp.upf
ATOMIC_POSITIONS {angstrom}
B 6.508145782275 2.587809142892 0.003278299841
B 2.730715681624 0.521794496894 2.521575010232
B 11.723792722544 2.244470640189 2.722535017246
B 7.209568761277 1.380046461706 2.211141610235
N 13.280075312064 2.542690422465 2.887335655734
N 6.84451259675 1.309487580831 0.687920734574
N 8.762713212339 1.677059237671 2.444460054821
N 4.241542341949 0.81069820422 2.667670378092
CELL_PARAMETERS {angstrom}
7.007385 0 0
-0.496387360774 2.590435152675 0
0.039120613534 0.007496415451 4.398319637242
!End