&CONTROL
calculation = "scf"
etot_conv_thr =   1.0000000000d-05
forc_conv_thr =   1.0000000000d-04
prefix = 'aiida'
pseudo_dir = '/opt/QEpot/SSSP_precision_pseudos/'
tprnfor = .true.
tstress = .true.
verbosity = 'high'
disk_io = 'none'
/
&SYSTEM
degauss =   2.2049585400d-02
ecutrho = 4.4000000000d+02
ecutwfc = 8.0000000000d+01
ibrav = 0
nat = 8
nosym = .false.
ntyp = 2
occupations = 'smearing'
smearing = 'cold'
/
&ELECTRONS
conv_thr =   2.0000000000d-10
electron_maxstep = 80
mixing_beta =   4.0000000000d-01
/
K_POINTS {automatic}
9 5 4 0 0 0
ATOMIC_SPECIES
B  10.81  B_pbe_v1.01.uspp.F.UPF
N  14.007  N.oncvpsp.upf
ATOMIC_POSITIONS {angstrom}
B 6.350928560541 0.005695315434 0.011314397121
B 2.467681982425 0.471965886478 2.525633431986
B 10.623038302009 2.039224156015 2.730571114526
B 6.519714660882 1.248429178736 2.215200031989
N 12.031243103028 2.309068805044 2.895371753014
N 6.206728020052 1.192956839516 0.695956831854
N 7.943730809676 1.525806796986 2.452496152101
N 3.853336720467 0.74199257011 2.675706475371
CELL_PARAMETERS {angstrom}
6.340015 0 0
-0.449112374033 2.343727042896 0
0.039120613534 0.007496415451 4.398319637242
!End