&CONTROL
calculation = "scf"
etot_conv_thr =   1.0000000000d-05
forc_conv_thr =   1.0000000000d-04
prefix = 'aiida'
pseudo_dir = '/opt/QEpot/SSSP_precision_pseudos/'
tprnfor = .true.
tstress = .true.
verbosity = 'high'
disk_io = 'none'
/
&SYSTEM
degauss =   2.2049585400d-02
ecutrho = 4.4000000000d+02
ecutwfc = 8.0000000000d+01
ibrav = 0
nat = 8
nosym = .false.
ntyp = 2
occupations = 'smearing'
smearing = 'cold'
/
&ELECTRONS
conv_thr =   2.0000000000d-10
electron_maxstep = 80
mixing_beta =   4.0000000000d-01
/
K_POINTS {automatic}
9 5 4 0 0 0
ATOMIC_SPECIES
B  10.81  B_pbe_v1.01.uspp.F.UPF
N  14.007  N.oncvpsp.upf
ATOMIC_POSITIONS {angstrom}
B 6.447616574852 0.00722926964 0.007798200251
B 2.517992831857 0.489760300656 2.517143289847
B 10.794251289324 2.076352745119 2.727054917657
B 6.641162243847 1.27985503834 2.206709889851
N 12.22713572176 2.350926583023 2.891855556145
N 6.300779366728 1.215299471477 0.692440634985
N 8.067981794012 1.553936378842 2.448979955231
N 3.905791574607 0.75636435087 2.672190278502
CELL_PARAMETERS {angstrom}
6.451243333333 0 0
-0.456991538490 2.384845061193 0
0.039120613534 0.007496415451 4.398319637242
!End