&CONTROL
calculation = "scf"
etot_conv_thr =   1.0000000000d-05
forc_conv_thr =   1.0000000000d-04
prefix = 'aiida'
pseudo_dir = '/opt/QEpot/SSSP_precision_pseudos/'
tprnfor = .true.
tstress = .true.
verbosity = 'high'
disk_io = 'none'
/
&SYSTEM
degauss =   2.2049585400d-02
ecutrho = 4.4000000000d+02
ecutwfc = 8.0000000000d+01
ibrav = 0
nat = 8
nosym = .false.
ntyp = 2
occupations = 'smearing'
smearing = 'cold'
/
&ELECTRONS
conv_thr =   2.0000000000d-10
electron_maxstep = 80
mixing_beta =   4.0000000000d-01
/
K_POINTS {automatic}
7 6 5 0 0 0
ATOMIC_SPECIES
B  10.81  B_pbe_v1.01.uspp.F.UPF
N  14.007  N.oncvpsp.upf
ATOMIC_POSITIONS {angstrom}
B 1.379642707736 2.476900553913 4.174549863871
B 0.035253227183 2.315780814154 2.098535409328
B 2.182892026604 1.124036955611 2.118720222351
B -1.370230812081 1.755085789833 0.042705767808
N 2.245236224354 1.378960343701 0.65944110189
N -0.956652299926 3.160975847565 2.750326528471
N 1.20757704217 1.946260162052 2.83266559657
N -0.130289236796 1.792440780401 0.741780169989
CELL_PARAMETERS {angstrom}
4.74411 0 0
0.832494704000 3.104400782131 0
0.392681142409 1.126461722399 4.181770853163
!End