&CONTROL
calculation = "scf"
etot_conv_thr =   1.0000000000d-05
forc_conv_thr =   1.0000000000d-04
prefix = 'aiida'
pseudo_dir = '/opt/QEpot/SSSP_precision_pseudos/'
tprnfor = .true.
tstress = .true.
verbosity = 'high'
disk_io = 'none'
/
&SYSTEM
degauss =   2.2049585400d-02
ecutrho = 4.4000000000d+02
ecutwfc = 8.0000000000d+01
ibrav = 0
nat = 8
nosym = .false.
ntyp = 2
occupations = 'smearing'
smearing = 'cold'
/
&ELECTRONS
conv_thr =   2.0000000000d-10
electron_maxstep = 80
mixing_beta =   4.0000000000d-01
/
K_POINTS {automatic}
7 6 5 0 0 0
ATOMIC_SPECIES
B  10.81  B_pbe_v1.01.uspp.F.UPF
N  14.007  N.oncvpsp.upf
ATOMIC_POSITIONS {angstrom}
B 1.18554823591 1.344562401226 0.005641018325
B 0.187166965578 2.313024675327 2.098657282341
B 2.380737950187 1.118160525323 2.131582229969
B -1.304011014606 1.752329651006 0.042827640822
N 2.514372637977 1.373083913414 0.672303109507
N -0.818219945383 3.155099417278 2.763188536089
N 1.387972963953 1.940383731765 2.845527604188
N 0.006200862466 1.786564350113 0.754642177606
CELL_PARAMETERS {angstrom}
5.07703 0 0
1.165414704000 3.104400782131 0
0.392681142409 1.126461722399 4.181770853163
!End