&CONTROL
calculation = "scf"
etot_conv_thr =   1.0000000000d-05
forc_conv_thr =   1.0000000000d-04
prefix = 'aiida'
pseudo_dir = '/opt/QEpot/SSSP_precision_pseudos/'
tprnfor = .true.
tstress = .true.
verbosity = 'high'
disk_io = 'none'
/
&SYSTEM
degauss =   2.2049585400d-02
ecutrho = 4.4000000000d+02
ecutwfc = 8.0000000000d+01
ibrav = 0
nat = 8
nosym = .false.
ntyp = 2
occupations = 'smearing'
smearing = 'cold'
/
&ELECTRONS
conv_thr =   2.0000000000d-10
electron_maxstep = 80
mixing_beta =   4.0000000000d-01
/
K_POINTS {automatic}
7 6 5 0 0 0
ATOMIC_SPECIES
B  10.81  B_pbe_v1.01.uspp.F.UPF
N  14.007  N.oncvpsp.upf
ATOMIC_POSITIONS {angstrom}
B 1.501380153341 2.431026704442 4.101359256342
B 0.143724388652 2.289443573771 2.05059450522
B 2.290695682649 1.100710832778 2.079793442181
B -1.301534198053 1.738093466522 0.029028691059
N 2.404577546841 1.351385497734 0.644835640394
N -0.840340412273 3.1037007432 2.700872976532
N 1.318766571627 1.909230319112 2.781839726829
N -0.029182480131 1.757974593822 0.725802390691
CELL_PARAMETERS {angstrom}
4.91057 0 0
1.064148292266 3.052660769095 0
0.386136456702 1.107687360359 4.112074672277
!End