&CONTROL
calculation = "scf"
etot_conv_thr =   1.0000000000d-05
forc_conv_thr =   1.0000000000d-04
prefix = 'aiida'
pseudo_dir = '/opt/QEpot/SSSP_precision_pseudos/'
tprnfor = .true.
tstress = .true.
verbosity = 'high'
disk_io = 'none'
/
&SYSTEM
degauss =   2.2049585400d-02
ecutrho = 4.4000000000d+02
ecutwfc = 8.0000000000d+01
ibrav = 0
nat = 8
nosym = .false.
ntyp = 2
occupations = 'smearing'
smearing = 'cold'
/
&ELECTRONS
conv_thr =   2.0000000000d-10
electron_maxstep = 80
mixing_beta =   4.0000000000d-01
/
K_POINTS {automatic}
7 6 5 0 0 0
ATOMIC_SPECIES
B  10.81  B_pbe_v1.01.uspp.F.UPF
N  14.007  N.oncvpsp.upf
ATOMIC_POSITIONS {angstrom}
B 1.563770603938 2.555788207084 4.319500091531
B 0.150765111964 2.395216140015 2.167526000853
B 2.393220821177 1.157829155505 2.195142795294
B -1.367981199489 1.81583128155 0.043168704616
N 2.512893288633 1.421249989866 0.687221037484
N -0.89702049891 3.262666010524 2.847802644951
N 1.371871585866 2.007459802161 2.932886348653
N -0.044617248185 1.848513107788 0.772304741186
CELL_PARAMETERS {angstrom}
5.16026 0 0
1.118257527466 3.207880808202 0
0.405770513822 1.164010446479 4.321163214935
!End