&CONTROL
calculation = "scf"
etot_conv_thr =   1.0000000000d-05
forc_conv_thr =   1.0000000000d-04
prefix = 'aiida'
pseudo_dir = '/opt/QEpot/SSSP_precision_pseudos/'
tprnfor = .true.
tstress = .true.
verbosity = 'high'
disk_io = 'none'
/
&SYSTEM
degauss =   2.2049585400d-02
ecutrho = 4.4000000000d+02
ecutwfc = 8.0000000000d+01
ibrav = 0
nat = 8
nosym = .false.
ntyp = 2
occupations = 'smearing'
smearing = 'cold'
/
&ELECTRONS
conv_thr =   2.0000000000d-10
electron_maxstep = 80
mixing_beta =   4.0000000000d-01
/
K_POINTS {automatic}
7 6 5 0 0 0
ATOMIC_SPECIES
B  10.81  B_pbe_v1.01.uspp.F.UPF
N  14.007  N.oncvpsp.upf
ATOMIC_POSITIONS {angstrom}
B 1.088744971689 1.355956349427 0.00840495712
B 0.116784134096 2.325762950248 2.091710485366
B 2.284305059466 1.129554473524 2.134346168763
B -1.331546875628 1.765067925927 0.035880843846
N 2.382294502236 1.384477861615 0.675067048302
N -0.884946051584 3.166493365479 2.765952474883
N 1.300265074131 1.951777679966 2.848291542982
N -0.059554116095 1.797958298314 0.7574061164
CELL_PARAMETERS {angstrom}
4.91057 0 0
0.998954704000 3.104400782131 0
0.392681142409 1.126461722399 4.181770853163
!End