&CONTROL
calculation = "scf"
etot_conv_thr =   1.0000000000d-05
forc_conv_thr =   1.0000000000d-04
prefix = 'aiida'
pseudo_dir = '/opt/QEpot/SSSP_precision_pseudos/'
tprnfor = .true.
tstress = .true.
verbosity = 'high'
disk_io = 'none'
/
&SYSTEM
degauss =   2.2049585400d-02
ecutrho = 4.4000000000d+02
ecutwfc = 8.0000000000d+01
ibrav = 0
nat = 8
nosym = .false.
ntyp = 2
occupations = 'smearing'
smearing = 'cold'
/
&ELECTRONS
conv_thr =   2.0000000000d-10
electron_maxstep = 80
mixing_beta =   4.0000000000d-01
/
K_POINTS {automatic}
7 6 5 0 0 0
ATOMIC_SPECIES
B  10.81  B_pbe_v1.01.uspp.F.UPF
N  14.007  N.oncvpsp.upf
ATOMIC_POSITIONS {angstrom}
B 1.553798261709 2.521622080133 4.175221637835
B 0.139403797714 2.380711037762 2.098674512321
B 2.389683436454 1.14212261964 2.119391996316
B -1.372907556232 1.819785770383 0.042844870801
N 2.513923597138 1.418646531853 0.660112875854
N -0.902534876112 3.241288190472 2.750998302436
N 1.366099478941 1.985342647732 2.833337370534
N -0.043844669404 1.845170315399 0.742451943953
CELL_PARAMETERS {angstrom}
5.16026 0 0
1.118257527466 3.207880808202 0
0.392681142409 1.126461722399 4.181770853163
!End