&CONTROL
calculation = "scf"
etot_conv_thr =   1.0000000000d-05
forc_conv_thr =   1.0000000000d-04
prefix = 'aiida'
pseudo_dir = '/opt/QEpot/SSSP_precision_pseudos/'
tprnfor = .true.
tstress = .true.
verbosity = 'high'
disk_io = 'none'
/
&SYSTEM
degauss =   2.2049585400d-02
ecutrho = 4.4000000000d+02
ecutwfc = 8.0000000000d+01
ibrav = 0
nat = 8
nosym = .false.
ntyp = 2
occupations = 'smearing'
smearing = 'cold'
/
&ELECTRONS
conv_thr =   2.0000000000d-10
electron_maxstep = 80
mixing_beta =   4.0000000000d-01
/
K_POINTS {automatic}
7 6 5 0 0 0
ATOMIC_SPECIES
B  10.81  B_pbe_v1.01.uspp.F.UPF
N  14.007  N.oncvpsp.upf
ATOMIC_POSITIONS {angstrom}
B 1.662410801855 2.481793380339 4.172868300131
B 0.251579206682 2.32680144517 2.083569810561
B 2.464549000224 1.128929782037 2.117038658612
B -1.282445743962 1.766106420849 0.027740169041
N 2.633828933034 1.383853170128 0.65775953815
N -0.764115679866 3.165868673992 2.748644964732
N 1.463059013089 1.951152988479 2.83098403283
N 0.059334000343 1.797333606828 0.740098606249
CELL_PARAMETERS {angstrom}
5.24349 0 0
1.331874704000 3.104400782131 0
0.392681142409 1.126461722399 4.181770853163
!End