&CONTROL
calculation = "scf"
etot_conv_thr =   1.0000000000d-05
forc_conv_thr =   1.0000000000d-04
prefix = 'aiida'
pseudo_dir = '/opt/QEpot/SSSP_precision_pseudos/'
tprnfor = .true.
tstress = .true.
verbosity = 'high'
disk_io = 'none'
/
&SYSTEM
degauss =   2.2049585400d-02
ecutrho = 4.4000000000d+02
ecutwfc = 8.0000000000d+01
ibrav = 0
nat = 8
nosym = .false.
ntyp = 2
occupations = 'smearing'
smearing = 'cold'
/
&ELECTRONS
conv_thr =   2.0000000000d-10
electron_maxstep = 80
mixing_beta =   4.0000000000d-01
/
K_POINTS {automatic}
7 6 5 0 0 0
ATOMIC_SPECIES
B  10.81  B_pbe_v1.01.uspp.F.UPF
N  14.007  N.oncvpsp.upf
ATOMIC_POSITIONS {angstrom}
B 1.195660036442 1.417519737976 0.004440797634
B 0.155234340894 2.435712937195 2.194409566462
B 2.45080368252 1.179797768278 2.23667906986
B -1.388007878807 1.846983161658 0.035788442866
N 2.572406351065 1.447467325773 0.704435993376
N -0.892506045955 3.31858360483 2.899865691286
N 1.412981072447 2.043132135042 2.98632171279
N -0.026354355702 1.881621784308 0.790892014879
CELL_PARAMETERS {angstrom}
5.24349 0 0
1.136293939200 3.259620821238 0
0.412315199529 1.182784808519 4.390859395821
!End