&CONTROL
calculation = "scf"
etot_conv_thr =   1.0000000000d-05
forc_conv_thr =   1.0000000000d-04
prefix = 'aiida'
pseudo_dir = '/opt/QEpot/SSSP_precision_pseudos/'
tprnfor = .true.
tstress = .true.
verbosity = 'high'
disk_io = 'none'
/
&SYSTEM
degauss =   2.2049585400d-02
ecutrho = 4.4000000000d+02
ecutwfc = 8.0000000000d+01
ibrav = 0
nat = 8
nosym = .false.
ntyp = 2
occupations = 'smearing'
smearing = 'cold'
/
&ELECTRONS
conv_thr =   2.0000000000d-10
electron_maxstep = 80
mixing_beta =   4.0000000000d-01
/
K_POINTS {automatic}
7 6 5 0 0 0
ATOMIC_SPECIES
B  10.81  B_pbe_v1.01.uspp.F.UPF
N  14.007  N.oncvpsp.upf
ATOMIC_POSITIONS {angstrom}
B 1.113086047689 1.332225960473 0.00739448547
B 0.156911977867 2.284305346903 2.08210253564
B 2.291865240652 1.119142015665 2.133335697114
B -1.291564087591 1.723725444111 0.02627289412
N 2.403463258231 1.363265141695 0.674056576652
N -0.838182358029 3.124967568181 2.764942003234
N 1.321053490732 1.930866811282 2.847281071333
N -0.03016790388 1.770223904972 0.756395644751
CELL_PARAMETERS {angstrom}
4.91057 0 0
1.064148292266 3.052660769095 0
0.392681142409 1.126461722399 4.181770853163
!End