&CONTROL
calculation = "scf"
etot_conv_thr = 1.0d-5
forc_conv_thr = 1.0d-4
pseudo_dir = '/opt/QEpot/SSSP_precision_pseudos/'
disk_io = 'none'
tprnfor = .true.
tstress = .true.
verbosity = 'high'
/
!controlend

&SYSTEM
ntyp = 4
occupations = 'smearing'
smearing = 'cold'
degauss =   7.3498618000d-03
ecutrho =   1.080d+03
ecutwfc =   1.000d+02
ibrav = 0
nat = 25
nosym = .false.
starting_magnetization(1) =   3.1250000000d-01
starting_magnetization(2) =   0.0000000000d+00
starting_magnetization(3) =   0.0000000000d+00
starting_magnetization(4) =   0.0000000000d+00
nspin = 2
!systemend
/

&ELECTRONS
conv_thr =   2.0000000000d-10
electron_maxstep = 1000
mixing_beta =   4.0000000000d-01
/
K_POINTS {automatic}
5 7 9 0 0 0
ATOMIC_SPECIES
Fe  55.845  Fe.pbe-spn-kjpaw_psl.0.2.1.UPF
Na  22.98977  Na_ONCV_PBE-1.0.oncvpsp.upf
O  15.9994  O.pbe-n-kjpaw_psl.0.1.UPF
P  30.973761  P.pbe-n-rrkjus_psl.1.0.0.UPF
ATOMIC_POSITIONS {angstrom}
Na 1.6223796319 0.3454173054 -0.3519719994
Fe 3.178939362 3.8920066635 4.9632391331
Fe 2.1612629204 1.5691088528 2.1325570538
Fe 7.4812346828 1.6082655578 0.3028894316
Fe 8.1125734447 4.7817978195 2.894710951
P 1.0961452095 4.5968958218 2.3622439016
P 4.3415056231 1.6859711892 4.0711906014
P 9.2786456225 1.5867581649 3.0488490187
P 6.2466767678 4.5949308359 0.5747901331
O 1.6511727502 4.4984246276 3.8136059796
O 3.50042096 1.8655152571 0.476749204
O 8.9722247112 1.5428256926 1.5390830921
O 6.5989782757 4.6728878405 4.0198588761
O 4.7024605637 4.7862993927 0.736669791
O 0.4067629331 1.674877337 3.2742848116
O 5.7913792966 1.2796069546 4.2950246558
O 9.9707390497 4.507159262 2.3023427614
O 1.5708576033 5.9173941905 1.6872990798
O 3.5389074798 0.6694640276 3.2091683149
O 8.4987496584 2.7418432294 3.7873686847
O 6.7428661842 3.2434890931 1.1910564787
O 8.6668953644 0.3270961542 3.7923224214
O 7.0515985347 5.6979648978 1.3634635635
O 1.7597631631 3.441817596 1.5016574393
O 4.1412761663 3.0969502365 3.4243816413
CELL_PARAMETERS {angstrom}
10.4063 0 0
0 6.2187 0
0 0 4.9469
!End