&CONTROL
calculation = "vc-md"
nstep = 1000
etot_conv_thr = 1.0d-5
forc_conv_thr = 1.0d-4
disk_io = 'none'
pseudo_dir = '/opt/QEpot/SSSP_precision_pseudos/'
tprnfor = .true.
tstress = .true.
dt = 20
/
!controlend

&SYSTEM
ntyp = 4
occupations = 'smearing'
smearing = 'cold'
degauss =   1.0000000000d-02
ecutrho =   1.080d+03
ecutwfc =   1.000d+02
ibrav = 0
nat = 25
nosym = .TRUE.
starting_magnetization(1) =   3.1250000000d-01
starting_magnetization(2) =   0.0000000000d+00
starting_magnetization(3) =   0.0000000000d+00
starting_magnetization(4) =   0.0000000000d+00
nspin = 2
/
&ELECTRONS
conv_thr =   5.6000000000d-09
electron_maxstep = 1000
mixing_beta =   4.0000000000d-01
/
&IONS
ion_dynamics = "beeman"
ion_temperature = "rescaling"
tempw = 300
tolp = 10
/
&CELL
!press_conv_thr = 0.1
cell_dynamics = "pr"
press = 0
/
K_POINTS {automatic}
3 4 5 0 0 0
ATOMIC_SPECIES
Fe     55.845 Fe.pbe-spn-kjpaw_psl.0.2.1.UPF
Na     22.98977 Na_ONCV_PBE-1.0.oncvpsp.upf
O      15.9994 O.pbe-n-kjpaw_psl.0.1.UPF
P      30.973761 P.pbe-n-rrkjus_psl.1.0.0.UPF
ATOMIC_POSITIONS {angstrom}
Na 5.8010875862 1.5546837697 2.2032422412
Fe 2.8837450774 4.6640561957 4.9043139531
Fe 2.1926674186 1.554666605 2.4262462096
Fe 7.5988242201 1.5546745013 0.0005294672
Fe 8.1275176228 4.6640636921 2.5453240458
P 1.0942376832 4.6640422953 2.1958677413
P 4.0285398923 1.5546864586 4.6577514669
P 9.2852571563 1.5546883618 2.7535672287
P 6.284524529 4.6640437219 0.3270623701
O 1.3665648109 4.664049645 3.7143771183
O 3.7756840622 1.5546797674 1.234649452
O 9.068548713 1.55468104 1.2289516559
O 6.580581619 4.6640509255 3.7604351863
O 4.7604689109 4.6640525799 0.5913562464
O 0.3765096717 1.554681281 3.1037703717
O 5.5761127214 1.5546780144 4.432300641
O 9.9722871552 4.6640492686 1.9353592483
O 1.8123602289 5.8783232008 1.4819851743
O 3.3384792375 0.3425283625 3.9338118291
O 8.5073519259 2.7539706638 3.4407973455
O 6.9949732193 3.4422550682 1.0541569468
O 8.5073490033 0.3554046358 3.4408000268
O 6.994982144 5.8858290099 1.0541632295
O 1.8123573749 3.4497624738 1.4819878827
O 3.3384880158 2.7668492606 3.9338179216
CELL_PARAMETERS angstrom
10.4063 0 0
0 6.2187 0
0 0 4.9469
!End