&CONTROL
calculation = "scf"
etot_conv_thr = 1.0d-5
forc_conv_thr = 1.0d-4
pseudo_dir = '/opt/QEpot/SSSP_precision_pseudos/'
disk_io = 'none'
tprnfor = .true.
tstress = .true.
verbosity = 'high'
/
!controlend

&SYSTEM
ntyp = 4
occupations = 'smearing'
smearing = 'cold'
degauss =   7.3498618000d-03
ecutrho =   1.080d+03
ecutwfc =   1.000d+02
ibrav = 0
nat = 25
nosym = .false.
starting_magnetization(1) =   3.1250000000d-01
starting_magnetization(2) =   0.0000000000d+00
starting_magnetization(3) =   0.0000000000d+00
starting_magnetization(4) =   0.0000000000d+00
nspin = 2
!systemend
/

&ELECTRONS
conv_thr =   2.0000000000d-10
electron_maxstep = 1000
mixing_beta =   4.0000000000d-01
/
K_POINTS {automatic}
5 7 9 0 0 0
ATOMIC_SPECIES
Fe  55.845  Fe.pbe-spn-kjpaw_psl.0.2.1.UPF
Na  22.98977  Na_ONCV_PBE-1.0.oncvpsp.upf
O  15.9994  O.pbe-n-kjpaw_psl.0.1.UPF
P  30.973761  P.pbe-n-rrkjus_psl.1.0.0.UPF
ATOMIC_POSITIONS {angstrom}
Na -1.97473e-05 -2.354e-07 7.44e-08
Fe 2.9840696986 4.6420364508 4.8977101015
Fe 2.3244191839 1.5828924545 2.4513803017
Fe 7.4222919557 1.5766945316 0.0492198563
Fe 8.0819422305 4.6358385439 2.4955495191
P 1.1249418265 4.6388281659 2.2030092716
P 4.0750634121 1.5475174127 4.6753128267
P 9.2814209575 1.5799024808 2.7439201627
P 6.3312966496 4.6712130283 0.2716192262
O 1.3408837083 4.6880994888 3.7317589671
O 3.8308111789 1.5441458316 1.2492734317
O 9.0654780554 1.5306311436 1.2151712572
O 6.5755507108 4.6745846754 3.6976552058
O 4.8148475945 4.67390662 0.5730820185
O 0.3951629466 1.5235349164 3.0808293463
O 5.5915151728 1.5448238297 4.3738473905
O 10.0111981501 4.6951957972 1.8661005713
O 1.8381036184 5.8476741573 1.4608594321
O 3.323803231 0.3498534943 3.9670214549
O 8.5573790742 2.7991993748 3.4205630127
O 7.0625661862 3.451745933 0.9714245006
O 8.568257843 0.3710566519 3.4860707312
O 7.0825584659 5.8688767997 0.9799086402
O 1.8489826831 3.4195320442 1.5263671688
O 3.3437952138 2.7669844091 3.9755055309
CELL_PARAMETERS {angstrom}
10.4063 0 0
0 6.2187 0
0 0 4.9469
!End