&CONTROL
calculation = "scf"
etot_conv_thr = 1.0d-5
forc_conv_thr = 1.0d-4
pseudo_dir = '/opt/QEpot/SSSP_precision_pseudos/'
disk_io = 'none'
tprnfor = .true.
tstress = .true.
verbosity = 'high'
/
!controlend

&SYSTEM
ntyp = 4
occupations = 'smearing'
smearing = 'cold'
degauss =   7.3498618000d-03
ecutrho = 1.080d+03
ecutwfc = 1.000d+02
ibrav = 0
nat = 25
nosym = .false.
starting_magnetization(1) =   3.1250000000d-01
starting_magnetization(2) =   0.0000000000d+00
starting_magnetization(3) =   0.0000000000d+00
starting_magnetization(4) =   0.0000000000d+00
nspin = 2
!systemend
/

&ELECTRONS
conv_thr =   2.0000000000d-10
electron_maxstep = 1000
mixing_beta =   4.0000000000d-01
/
K_POINTS {automatic}
5 7 9 0 0 0
ATOMIC_SPECIES
Fe  55.845  Fe.pbe-spn-kjpaw_psl.0.2.1.UPF
Na  22.98977  Na_ONCV_PBE-1.0.oncvpsp.upf
O  15.9994  O.pbe-n-kjpaw_psl.0.1.UPF
P  30.973761  P.pbe-n-rrkjus_psl.1.0.0.UPF
ATOMIC_POSITIONS {angstrom}
Na 9.88596522803 0 0
Fe 2.83486551466 4.40993389296 4.65282262508
Fe 2.208202811495 1.50375068757 2.328812785145
Fe 7.05117880125 1.497860645865 0.04676057225
Fe 7.677841504415 4.404043851255 2.370770412185
P 1.06869475047 4.40688548622 2.092857527705
P 3.87131218206 1.470141412485 4.4415494305
P 8.81734956544 1.500909052605 2.606725669625
P 6.01473213385 4.43765312634 0.258038466385
O 1.273838825205 4.453692708315 3.545170408465
O 3.63926834214 1.466939403855 1.186811521035
O 8.612205490705 1.45410183051 1.154412788865
O 6.24677597377 4.44085513497 3.512771676295
O 4.57410685571 4.440211188585 0.544429348085
O 0.375400508405 1.447361070645 2.9267888629
O 5.3119374602 1.46758335024 4.155153849245
O 9.51063392152 4.46043346818 1.77279433443
O 1.74620107449 5.555290016805 1.38781618794
O 3.157613266955 0.33235904337 3.768671845155
O 8.129512387095 2.65923862839 3.24953550208
O 6.70944007177 3.279158133135 0.92285161535
O 8.13984324142 0.35250452202 3.31176700939
O 6.728431048955 5.575435495455 0.930911352175
O 1.756531928815 3.248555910435 1.45004769525
O 3.17660424414 2.62863640569 3.77673158198
CELL_PARAMETERS {angstrom}
9.885985 0 0
0 5.907765 0
0 0 4.699555
!End