&CONTROL
calculation = "scf"
etot_conv_thr = 1.0d-5
forc_conv_thr = 1.0d-4
pseudo_dir = '/opt/QEpot/SSSP_precision_pseudos/'
disk_io = 'none'
tprnfor = .true.
tstress = .true.
verbosity = 'high'
/
!controlend

&SYSTEM
ntyp = 4
occupations = 'smearing'
smearing = 'cold'
degauss =   7.3498618000d-03
ecutrho = 1.080d+03
ecutwfc = 1.000d+02
ibrav = 0
nat = 25
nosym = .false.
starting_magnetization(1) =   3.1250000000d-01
starting_magnetization(2) =   0.0000000000d+00
starting_magnetization(3) =   0.0000000000d+00
starting_magnetization(4) =   0.0000000000d+00
nspin = 2
!systemend
/

&ELECTRONS
conv_thr =   2.0000000000d-10
electron_maxstep = 1000
mixing_beta =   4.0000000000d-01
/
K_POINTS {automatic}
5 7 9 0 0 0
ATOMIC_SPECIES
Fe  55.845  Fe.pbe-spn-kjpaw_psl.0.2.1.UPF
Na  22.98977  Na_ONCV_PBE-1.0.oncvpsp.upf
O  15.9994  O.pbe-n-kjpaw_psl.0.1.UPF
P  30.973761  P.pbe-n-rrkjus_psl.1.0.0.UPF
ATOMIC_POSITIONS {angstrom}
Na 10.579717173857 0 0
Fe 3.033803445513 4.71940293808 4.979336493507
Fe 2.363164412302 1.60927705161 2.492238243752
Fe 7.54599836625 1.602973673645 0.050042015917
Fe 8.216637399462 4.713099560115 2.537140265672
P 1.14369087331 4.71614060806 2.239724722632
P 4.14298321238 1.573309230905 4.753237109833
P 9.436110938453 1.606236003665 2.789653786792
P 6.436818599383 4.74906738082 0.276146428938
O 1.363231023465 4.766232547495 3.793954296778
O 3.89465559422 1.569882519915 1.270096540055
O 9.216570788298 1.55614406423 1.235424212645
O 6.685146217543 4.75249409181 3.759281969368
O 4.895096810497 4.751804956205 0.582634916372
O 0.401744403732 1.548930268585 3.132177555033
O 5.684705001267 1.57057165552 4.446743593052
O 10.178046828293 4.77344634314 1.89720095439
O 1.86874150077 5.945134930265 1.48520679762
O 3.379200162882 0.35568248501 4.033140044815
O 8.700004484435 2.84585186547 3.477573081173
O 7.180277971543 3.509274493355 0.987613132217
O 8.711060310993 0.37724168146 3.544171711803
O 7.200601648882 5.966694126715 0.996238464608
O 1.879797327328 3.476524746255 1.55180542825
O 3.39952384022 2.81310211837 4.041765377207
CELL_PARAMETERS {angstrom}
10.579738333333 0 0
0 6.322345 0
0 0 5.029348333333
!End