&CONTROL
calculation = "scf"
etot_conv_thr = 1.0d-5
forc_conv_thr = 1.0d-4
pseudo_dir = '/opt/QEpot/SSSP_precision_pseudos/'
disk_io = 'none'
tprnfor = .true.
tstress = .true.
verbosity = 'high'
/
!controlend

&SYSTEM
ntyp = 4
occupations = 'smearing'
smearing = 'cold'
degauss =   7.3498618000d-03
ecutrho = 1.080d+03
ecutwfc = 1.000d+02
ibrav = 0
nat = 25
nosym = .false.
starting_magnetization(1) =   3.1250000000d-01
starting_magnetization(2) =   0.0000000000d+00
starting_magnetization(3) =   0.0000000000d+00
starting_magnetization(4) =   0.0000000000d+00
nspin = 2
!systemend
/

&ELECTRONS
conv_thr =   2.0000000000d-10
electron_maxstep = 1000
mixing_beta =   4.0000000000d-01
/
K_POINTS {automatic}
5 7 9 0 0 0
ATOMIC_SPECIES
Fe  55.845  Fe.pbe-spn-kjpaw_psl.0.2.1.UPF
Na  22.98977  Na_ONCV_PBE-1.0.oncvpsp.upf
O  15.9994  O.pbe-n-kjpaw_psl.0.1.UPF
P  30.973761  P.pbe-n-rrkjus_psl.1.0.0.UPF
ATOMIC_POSITIONS {angstrom}
Na 10.753155160313 0 0
Fe 3.083537928227 4.79677019936 4.8977080264
Fe 2.401904812503 1.63565864262 2.4513818791
Fe 7.6697032575 1.62925193059 0.049221655
Fe 8.351336373223 4.79036348733 2.4955478023
P 1.16243990402 4.79345438852 2.2030079239
P 4.21090096996 1.59910118551 4.67531519
P 9.590801281707 1.63256774143 2.7439217575
P 6.542340215767 4.82692094444 0.2716194383
O 1.38557907303 4.84436750729 3.7317583247
O 3.95850240724 1.59561829893 1.2492752853
O 9.367662112697 1.58165462266 1.2151713567
O 6.794738778487 4.83040383102 3.6976543961
O 4.975344299193 4.82970339811 0.5730835243
O 0.408330377563 1.57432256807 3.080830382
O 5.777896886533 1.59631873184 4.3738461571
O 10.344900054987 4.85169956188 1.8660992994
O 1.89937660734 6.04259615863 1.4608591452
O 3.434596886863 0.36151334542 3.9670229949
O 8.84262750877 2.89250517474 3.4205636864
O 7.297987446487 3.56680358341 0.971422753
O 8.853864578387 0.38342597132 3.4860705362
O 7.318644298863 6.06450878453 0.9799066865
O 1.910613676957 3.53351695521 1.526365995
O 3.45525373924 2.85921854654 3.9755069284
CELL_PARAMETERS {angstrom}
10.753176666667 0 0
0 6.42599 0
0 0 4.9469
!End