&CONTROL
calculation = "scf"
etot_conv_thr = 1.0d-5
forc_conv_thr = 1.0d-4
pseudo_dir = '/opt/QEpot/SSSP_precision_pseudos/'
disk_io = 'none'
tprnfor = .true.
tstress = .true.
verbosity = 'high'
/
!controlend

&SYSTEM
ntyp = 4
occupations = 'smearing'
smearing = 'cold'
degauss =   7.3498618000d-03
ecutrho = 1.080d+03
ecutwfc = 1.000d+02
ibrav = 0
nat = 25
nosym = .false.
starting_magnetization(1) =   3.1250000000d-01
starting_magnetization(2) =   0.0000000000d+00
starting_magnetization(3) =   0.0000000000d+00
starting_magnetization(4) =   0.0000000000d+00
nspin = 2
!systemend
/

&ELECTRONS
conv_thr =   2.0000000000d-10
electron_maxstep = 1000
mixing_beta =   4.0000000000d-01
/
K_POINTS {automatic}
5 7 9 0 0 0
ATOMIC_SPECIES
Fe  55.845  Fe.pbe-spn-kjpaw_psl.0.2.1.UPF
Na  22.98977  Na_ONCV_PBE-1.0.oncvpsp.upf
O  15.9994  O.pbe-n-kjpaw_psl.0.1.UPF
P  30.973761  P.pbe-n-rrkjus_psl.1.0.0.UPF
ATOMIC_POSITIONS {angstrom}
Na 10.232841200943 0 0
Fe 2.934334480087 4.6420356768 4.8977080264
Fe 2.285683611898 1.5828954606 2.4513818791
Fe 7.29858858375 1.5766954167 0.049221655
Fe 7.947239451938 4.6358356329 2.4955478023
P 1.10619281189 4.6388268276 2.2030079239
P 4.00714769722 1.5475172763 4.67531519
P 9.126730251947 1.5799042659 2.7439217575
P 6.225775366617 4.6712138172 0.2716194383
O 1.318534924335 4.6880975877 3.7317583247
O 3.76696196818 1.5441467409 1.2492752853
O 8.914388139502 1.5306335058 1.2151713567
O 6.465961095657 4.6745843526 3.6976543961
O 4.734601833103 4.6739065143 0.5730835243
O 0.388572456068 1.5235379691 3.080830382
O 5.498321230733 1.5448245792 4.3738461571
O 9.844340374907 4.6951931244 1.8660992994
O 1.80747128763 5.8476737019 1.4608591452
O 3.268406714918 0.3498516246 3.9670229949
O 8.414758435765 2.7991985562 3.4205636864
O 6.944859021657 3.4517454033 0.971422753
O 8.425451776207 0.3710573916 3.4860705362
O 6.964516348918 5.8688794689 0.9799066865
O 1.818164628072 3.4195325373 1.526365995
O 3.28806404218 2.7669856902 3.9755069284
CELL_PARAMETERS {angstrom}
10.232861666667 0 0
0 6.2187 0
0 0 4.9469
!End