&CONTROL
calculation = "scf"
etot_conv_thr = 1.0d-5
forc_conv_thr = 1.0d-4
pseudo_dir = '/opt/QEpot/SSSP_precision_pseudos/'
disk_io = 'none'
tprnfor = .true.
tstress = .true.
verbosity = 'high'
/
!controlend

&SYSTEM
ntyp = 4
occupations = 'smearing'
smearing = 'cold'
degauss =   7.3498618000d-03
ecutrho =   1.080d+03
ecutwfc =   1.000d+02
ibrav = 0
nat = 25
nosym = .false.
starting_magnetization(1) =   3.1250000000d-01
starting_magnetization(2) =   0.0000000000d+00
starting_magnetization(3) =   0.0000000000d+00
starting_magnetization(4) =   0.0000000000d+00
nspin = 2
!systemend
/

&ELECTRONS
conv_thr =   2.0000000000d-10
electron_maxstep = 1000
mixing_beta =   4.0000000000d-01
/
K_POINTS {automatic}
5 7 9 0 0 0
ATOMIC_SPECIES
Fe  55.845  Fe.pbe-spn-kjpaw_psl.0.2.1.UPF
Na  22.98977  Na_ONCV_PBE-1.0.oncvpsp.upf
O  15.9994  O.pbe-n-kjpaw_psl.0.1.UPF
P  30.973761  P.pbe-n-rrkjus_psl.1.0.0.UPF
ATOMIC_POSITIONS {angstrom}
Na 5.7535932144 1.2189094418 2.2366700081
Fe 2.8851978422 4.6714216066 4.9055068407
Fe 2.1903313148 1.5650012638 2.4267176527
Fe 7.5915800001 1.6002986528 0.0080847624
Fe 8.1326031895 4.6588730713 2.5408403498
P 1.0968040065 4.6728197793 2.1961266629
P 4.0299958108 1.5776665677 4.6608875084
P 9.2824985442 1.5576461357 2.7546220772
P 6.2900767303 4.664635302 0.3162143814
O 1.3681483685 4.679268103 3.7147112361
O 3.7757449393 1.5616879942 1.2367117443
O 9.0671884353 1.5603948386 1.2297369671
O 6.5734792505 4.6834068491 3.7469707742
O 4.7677888607 4.6797226076 0.5936530254
O 0.3752508063 1.5521887521 3.1023227788
O 5.5773366606 1.5721345809 4.4360455308
O 9.9755550579 4.6736638138 1.933681387
O 1.8179663197 5.8833265076 1.478757928
O 3.3529523641 0.3635345708 3.9227725739
O 8.5174871088 2.7662453863 3.4429282043
O 7.0085102666 3.4441912962 1.034068324
O 8.4962386073 0.3664295835 3.4409866404
O 7.0081682503 5.8802269556 1.0449209946
O 1.812546039 3.4551718521 1.4861207966
O 3.3324580122 2.7884512299 3.9465658507
CELL_PARAMETERS {angstrom}
10.4063 0 0
0 6.2187 0
0 0 4.9469
!End