&CONTROL
calculation = "scf"
etot_conv_thr = 1.0d-5
forc_conv_thr = 1.0d-4
pseudo_dir = '/opt/QEpot/SSSP_precision_pseudos/'
disk_io = 'none'
tprnfor = .true.
tstress = .true.
verbosity = 'high'
/
!controlend

&SYSTEM
ntyp = 4
occupations = 'smearing'
smearing = 'cold'
degauss =   7.3498618000d-03
ecutrho = 1.080d+03
ecutwfc = 1.000d+02
ibrav = 0
nat = 25
nosym = .false.
starting_magnetization(1) =   3.1250000000d-01
starting_magnetization(2) =   0.0000000000d+00
starting_magnetization(3) =   0.0000000000d+00
starting_magnetization(4) =   0.0000000000d+00  
nspin = 2
!systemend
/

&ELECTRONS
conv_thr =   2.0000000000d-10
electron_maxstep = 1000
mixing_beta =   4.0000000000d-01
/
K_POINTS {automatic}
5 7 9 0 0 0
ATOMIC_SPECIES
Fe  55.845  Fe.pbe-spn-kjpaw_psl.0.2.1.UPF
Na  22.98977  Na_ONCV_PBE-1.0.oncvpsp.upf
O  15.9994  O.pbe-n-kjpaw_psl.0.1.UPF
P  30.973761  P.pbe-n-rrkjus_psl.1.0.0.UPF
ATOMIC_POSITIONS {angstrom}
Na 5.657698051192 1.2189087309 2.2366715784
Fe 2.837112061392 4.6714190343 4.9055092877
Fe 2.153822956462 1.5650042607 2.4267166357
Fe 7.465056777343 1.6003016019 0.0080832346
Fe 7.997063255393 4.6588759164 2.5408416187
P 1.078523153943 4.6728182418 2.196126786
P 3.962829173342 1.5776655339 4.6608850827
P 9.12779446956 1.5576475386 2.7546219022
P 6.185243001555 4.6646344326 0.3162157418
O 1.345345021902 4.6792670337 3.7147113073
O 3.712819897102 1.5616896936 1.2367101593
O 8.916066328815 1.560396204 1.2297350303
O 6.463924756185 4.6834086879 3.7469700422
O 4.688328832647 4.6797209988 0.5936527345
O 0.3689969917 1.55218752 3.1023246625
O 5.484384073143 1.5721371096 4.4360435308
O 9.809292823698 4.673663985 1.9336838472
O 1.787670700305 5.883325509 1.4787570294
O 3.297068960447 0.3635327646 3.9227729744
O 8.375525644135 2.7662456649 3.4429286213
O 6.891699305298 3.4441896828 1.0340702946
O 8.354630140612 0.3664306788 3.4409844896
O 6.891361620863 5.8802285964 1.0449188463
O 1.782339379377 3.455171907 1.4861229635
O 3.276920455825 2.7884526426 3.9465675634
CELL_PARAMETERS {angstrom}
10.232861666667 0 0
0 6.2187 0
0 0 4.9469
!End