&CONTROL
calculation = "scf"
etot_conv_thr = 1.0d-5
forc_conv_thr = 1.0d-4
pseudo_dir = '/opt/QEpot/SSSP_precision_pseudos/'
disk_io = 'none'
tprnfor = .true.
tstress = .true.
verbosity = 'high'
/
!controlend

&SYSTEM
ntyp = 4
occupations = 'smearing'
smearing = 'cold'
degauss =   7.3498618000d-03
ecutrho = 1.080d+03
ecutwfc = 1.000d+02
ibrav = 0
nat = 25
nosym = .false.
starting_magnetization(1) =   3.1250000000d-01
starting_magnetization(2) =   0.0000000000d+00
starting_magnetization(3) =   0.0000000000d+00
starting_magnetization(4) =   0.0000000000d+00 
nspin = 2
!systemend
/

&ELECTRONS
conv_thr =   2.0000000000d-10
electron_maxstep = 1000
mixing_beta =   4.0000000000d-01
/
K_POINTS {automatic}
5 7 9 0 0 0
ATOMIC_SPECIES
Fe  55.845  Fe.pbe-spn-kjpaw_psl.0.2.1.UPF
Na  22.98977  Na_ONCV_PBE-1.0.oncvpsp.upf
O  15.9994  O.pbe-n-kjpaw_psl.0.1.UPF
P  30.973761  P.pbe-n-rrkjus_psl.1.0.0.UPF
ATOMIC_POSITIONS {angstrom}
Na 5.561804863883 1.17827843987 2.16211585912
Fe 2.789025416283 4.51570506649 4.741992311443
Fe 2.117317482623 1.51283745201 2.345826081177
Fe 7.338530391287 1.54695821517 0.007813793447
Fe 7.861519810387 4.50358005252 2.456146898077
P 1.060243100487 4.51705763374 2.1229225598
P 3.895662577183 1.52507668277 4.50552224661
P 8.97308608872 1.50572595398 2.662801172127
P 6.08040837441 4.50914661818 0.305675217073
O 1.322542563903 4.52329146591 3.590887597057
O 3.649890746303 1.50963337048 1.195486487323
O 8.76494656053 1.5083829972 1.188743862623
O 6.35436670947 4.52729506497 3.622071040793
O 4.608865632093 4.52373029884 0.573864310017
O 0.3627428054 1.500447936 2.998913840417
O 5.391428410887 1.51973253928 4.288175413107
O 9.643033623297 4.5178751855 1.86922771896
O 1.75737119691 5.6872146587 1.42946512842
O 3.241186435693 0.35141500578 3.792013875253
O 8.23356758237 2.67403747607 3.328164333923
O 6.774890842497 3.32938336004 0.99960128478
O 8.213026239923 0.35421632284 3.326285006613
O 6.774558881527 5.68422097652 1.01008821809
O 1.752130237353 3.3399995101 1.436585531383
O 3.22137943115 2.69550422118 3.815015311287
CELL_PARAMETERS {angstrom}
10.059423333333 0 0
0 6.01141 0
0 0 4.782003333333
!End