&CONTROL
calculation = "scf"
etot_conv_thr = 1.0d-5
forc_conv_thr = 1.0d-4
pseudo_dir = '/opt/QEpot/SSSP_precision_pseudos/'
disk_io = 'none'
tprnfor = .true.
tstress = .true.
verbosity = 'high'
/
!controlend

&SYSTEM
ntyp = 4
occupations = 'smearing'
smearing = 'cold'
degauss =   7.3498618000d-03
ecutrho = 1.080d+03
ecutwfc = 1.000d+02
ibrav = 0
nat = 25
nosym = .false.
starting_magnetization(1) =   3.1250000000d-01
starting_magnetization(2) =   0.0000000000d+00
starting_magnetization(3) =   0.0000000000d+00
starting_magnetization(4) =   0.0000000000d+00 
nspin = 2
!systemend
/

&ELECTRONS
conv_thr =   2.0000000000d-10
electron_maxstep = 1000
mixing_beta =   4.0000000000d-01
/
K_POINTS {automatic}
5 7 9 0 0 0
ATOMIC_SPECIES
Fe  55.845  Fe.pbe-spn-kjpaw_psl.0.2.1.UPF
Na  22.98977  Na_ONCV_PBE-1.0.oncvpsp.upf
O  15.9994  O.pbe-n-kjpaw_psl.0.1.UPF
P  30.973761  P.pbe-n-rrkjus_psl.1.0.0.UPF
ATOMIC_POSITIONS {angstrom}
Na 5.657698051192 1.198593585385 2.19939371876
Fe 2.837112061392 4.593562050395 4.823750799572
Fe 2.153822956462 1.538920856355 2.386271358438
Fe 7.465056777343 1.573629908535 0.007948514023
Fe 7.997063255393 4.58122798446 2.498494258388
P 1.078523153943 4.59493793777 2.1595246729
P 3.962829173342 1.551371108335 4.583203664655
P 9.12779446956 1.53168674629 2.708711537163
P 6.185243001555 4.58689052539 0.310945479437
O 1.345345021902 4.601279249805 3.652799452178
O 3.712819897102 1.53566153204 1.216098323312
O 8.916066328815 1.5343896006 1.209239446462
O 6.463924756185 4.605351876435 3.684520541497
O 4.688328832647 4.60172564882 0.583758522258
O 0.3689969917 1.526317728 3.050619251458
O 5.484384073143 1.54593482444 4.362109471953
O 9.809292823698 4.59576958525 1.90145578308
O 1.787670700305 5.78527008385 1.45411107891
O 3.297068960447 0.35747388519 3.857393424827
O 8.375525644135 2.720141570485 3.385546477612
O 6.891699305298 3.38678652142 1.01683578969
O 8.354630140612 0.36032350082 3.383634748107
O 6.891361620863 5.78222478646 1.027503532195
O 1.782339379377 3.39758570855 1.461354247442
O 3.276920455825 2.74197843189 3.880791437343
CELL_PARAMETERS {angstrom}
10.232861666667 0 0
0 6.115055 0
0 0 4.864451666667
!End