&CONTROL
calculation = "scf"
etot_conv_thr = 1.0d-5
forc_conv_thr = 1.0d-4
pseudo_dir = '/opt/QEpot/SSSP_precision_pseudos/'
disk_io = 'none'
tprnfor = .true.
tstress = .true.
verbosity = 'high'
/
!controlend

&SYSTEM
ntyp = 4
occupations = 'smearing'
smearing = 'cold'
degauss =   7.3498618000d-03
ecutrho = 1.080d+03
ecutwfc = 1.000d+02
ibrav = 0
nat = 25
nosym = .false.
starting_magnetization(1) =   3.1250000000d-01
starting_magnetization(2) =   0.0000000000d+00
starting_magnetization(3) =   0.0000000000d+00
starting_magnetization(4) =   0.0000000000d+00 
nspin = 2
!systemend
/

&ELECTRONS
conv_thr =   2.0000000000d-10
electron_maxstep = 1000
mixing_beta =   4.0000000000d-01
/
K_POINTS {automatic}
5 7 9 0 0 0
ATOMIC_SPECIES
Fe  55.845  Fe.pbe-spn-kjpaw_psl.0.2.1.UPF
Na  22.98977  Na_ONCV_PBE-1.0.oncvpsp.upf
O  15.9994  O.pbe-n-kjpaw_psl.0.1.UPF
P  30.973761  P.pbe-n-rrkjus_psl.1.0.0.UPF
ATOMIC_POSITIONS {angstrom}
Na 5.945377613117 1.25953902193 2.2366715784
Fe 2.981371996717 4.82713300211 4.9055092877
Fe 2.263339377977 1.61717106939 2.4267166357
Fe 7.844635935513 1.65364498863 0.0080832346
Fe 8.403693590413 4.81417178028 2.5408416187
P 1.133363314313 4.82857884986 2.196126786
P 4.164328961817 1.63025438503 4.6608850827
P 9.59191961208 1.60956912322 2.7546219022
P 6.49974688299 4.82012224702 0.3162157418
O 1.413752395897 4.83524260149 3.7147113073
O 3.901607349497 1.61374601672 1.2367101593
O 9.36942563367 1.6124094108 1.2297350303
O 6.79259889633 4.83952231083 3.7469700422
O 4.926718434307 4.83571169876 0.5936527345
O 0.3877595506 1.603927104 3.1023246625
O 5.763251059913 1.62454167992 4.4360435308
O 10.308070424903 4.8294527845 1.9336838472
O 1.87856921049 6.0794363593 1.4787570294
O 3.464716534707 0.37565052342 3.9227729744
O 8.80139982943 2.85845385373 3.4429286213
O 7.242124693703 3.55899600556 1.0340702946
O 8.779441842677 0.37864503476 3.4409844896
O 7.241769838873 6.07623621628 1.0449188463
O 1.872966805447 3.5703443039 1.4861229635
O 3.44354352985 2.88140106402 3.9465675634
CELL_PARAMETERS {angstrom}
10.753176666667 0 0
0 6.42599 0
0 0 4.9469
!End