&CONTROL
calculation = "scf"
etot_conv_thr = 1.0d-5
forc_conv_thr = 1.0d-4
pseudo_dir = '/opt/QEpot/SSSP_precision_pseudos/'
disk_io = 'none'
tprnfor = .true.
tstress = .true.
verbosity = 'high'
/
!controlend

&SYSTEM
ntyp = 4
occupations = 'smearing'
smearing = 'cold'
degauss =   7.3498618000d-03
ecutrho = 1.080d+03
ecutwfc = 1.000d+02
ibrav = 0
nat = 25
nosym = .false.
starting_magnetization(1) =   3.1250000000d-01
starting_magnetization(2) =   0.0000000000d+00
starting_magnetization(3) =   0.0000000000d+00
starting_magnetization(4) =   0.0000000000d+00
nspin = 2
!systemend
/

&ELECTRONS
conv_thr =   2.0000000000d-10
electron_maxstep = 1000
mixing_beta =   4.0000000000d-01
/
K_POINTS {automatic}
5 7 9 0 0 0
ATOMIC_SPECIES
Fe  55.845  Fe.pbe-spn-kjpaw_psl.0.2.1.UPF
Na  22.98977  Na_ONCV_PBE-1.0.oncvpsp.upf
O  15.9994  O.pbe-n-kjpaw_psl.0.1.UPF
P  30.973761  P.pbe-n-rrkjus_psl.1.0.0.UPF
ATOMIC_POSITIONS {angstrom}
Na 5.849484425808 1.239223876415 2.2366715784
Fe 2.933285351608 4.749276018205 4.9055092877
Fe 2.226833904138 1.591087665045 2.4267166357
Fe 7.718109549457 1.626973295265 0.0080832346
Fe 8.268150145407 4.73652384834 2.5408416187
P 1.115083260857 4.75069854583 2.196126786
P 4.097162365658 1.603959959465 4.6608850827
P 9.43721123124 1.58360833091 2.7546219022
P 6.394912255845 4.74237833981 0.3162157418
O 1.390949937898 4.757254817595 3.7147113073
O 3.838678198698 1.58771785516 1.2367101593
O 9.218305865385 1.5864028074 1.2297350303
O 6.683040849615 4.761465499365 3.7469700422
O 4.847255233753 4.75771634878 0.5936527345
O 0.3815053643 1.578057312 3.1023246625
O 5.670295397657 1.59833939476 4.4360435308
O 10.141811224502 4.75155838475 1.9336838472
O 1.848269707095 5.98138093415 1.4787570294
O 3.408834009953 0.36959164401 3.9227729744
O 8.659441767665 2.812349759315 3.4429286213
O 7.125316230902 3.50159284418 1.0340702946
O 8.637837941988 0.37253785678 3.4409844896
O 7.124967099537 5.97823240634 1.0449188463
O 1.842757663423 3.51275810545 1.4861229635
O 3.388002505175 2.83492685331 3.9465675634
CELL_PARAMETERS {angstrom}
10.579738333333 0 0
0 6.322345 0
0 0 4.9469
!End