&CONTROL
calculation = "vc-md"
nstep = 1000
etot_conv_thr = 1.0d-5
forc_conv_thr = 1.0d-4
disk_io = 'none'
pseudo_dir = '/opt/QEpot/SSSP_precision_pseudos/'
tprnfor = .true.
tstress = .true.
dt = 20
/
!controlend

&SYSTEM
ntyp = 4
occupations = 'smearing'
smearing = 'cold'
degauss =   1.0000000000d-02
ecutrho =   1.080d+03
ecutwfc =   1.000d+02
ibrav = 0
nat = 25
nosym = .TRUE.
starting_magnetization(1) =   3.1250000000d-01
starting_magnetization(2) =   0.0000000000d+00
starting_magnetization(3) =   0.0000000000d+00
starting_magnetization(4) =   0.0000000000d+00
nspin = 2
/
&ELECTRONS
conv_thr =   5.6000000000d-09
electron_maxstep = 1000
mixing_beta =   4.0000000000d-01
/
&IONS
ion_dynamics = "beeman"
ion_temperature = "rescaling"
tempw = 50
tolp = 10
/
&CELL
!press_conv_thr = 0.1
cell_dynamics = "pr"
press = 0
/
K_POINTS {automatic}
3 4 5 0 0 0
ATOMIC_SPECIES
Fe     55.845 Fe.pbe-spn-kjpaw_psl.0.2.1.UPF
Na     22.98977 Na_ONCV_PBE-1.0.oncvpsp.upf
O      15.9994 O.pbe-n-kjpaw_psl.0.1.UPF
P      30.973761 P.pbe-n-rrkjus_psl.1.0.0.UPF
ATOMIC_POSITIONS {angstrom}
Na 5.6465359063 0.8944515404 2.3076111363
Fe 2.8876856088 4.6759608389 4.9083832619
Fe 2.1879987476 1.5745018926 2.4268489547
Fe 7.5767782994 1.6215508649 0.0200504946
Fe 8.1437602964 4.6529999231 2.5325758259
P 1.102522048 4.679753084 2.1968095231
P 4.0360716371 1.5970952116 4.6666284135
P 9.2777963752 1.5593961398 2.7558179623
P 6.3009958845 4.6681967971 0.2964448978
O 1.3714232841 4.6913665105 3.7155039182
O 3.7817254362 1.5665029694 1.2411560511
O 9.0636641963 1.5656093038 1.2307261227
O 6.5586352355 4.7011774667 3.7217151338
O 4.7822025359 4.7006859888 0.6001979863
O 0.3737768709 1.5509228698 3.0979257074
O 5.5811653305 1.5874603406 4.4339908665
O 9.982842272 4.6802788719 1.9295737404
O 1.8273269103 5.8868171369 1.4773000919
O 3.3718671428 0.380589036 3.9137278956
O 8.5234758549 2.7737105281 3.4461619375
O 7.02756904 3.4515599857 1.0043167457
O 8.4913463836 0.3708091458 3.4418364233
O 7.0336247245 5.877942996 1.0204818802
O 1.8173280347 3.4597787185 1.4901050905
O 3.3313819444 2.8069249982 3.9607349388
CELL_PARAMETERS {angstrom}
10.4063 0 0
0 6.2187 0
0 0 4.9469
!End