&CONTROL
calculation = "scf"
etot_conv_thr = 1.0d-5
forc_conv_thr = 1.0d-4
pseudo_dir = '/opt/QEpot/SSSP_precision_pseudos/'
disk_io = 'none'
tprnfor = .true.
tstress = .true.
verbosity = 'high'
/
!controlend

&SYSTEM
ntyp = 4
occupations = 'smearing'
smearing = 'cold'
degauss =   7.3498618000d-03
ecutrho =   1.080d+03
ecutwfc =   1.000d+02
ibrav = 0
nat = 25
nosym = .false.
starting_magnetization(1) =   3.1250000000d-01
starting_magnetization(2) =   0.0000000000d+00
starting_magnetization(3) =   0.0000000000d+00
starting_magnetization(4) =   0.0000000000d+00
nspin = 2
!systemend
/

&ELECTRONS
conv_thr =   2.0000000000d-10
electron_maxstep = 1000
mixing_beta =   4.0000000000d-01
/
K_POINTS {automatic}
5 7 9 0 0 0
ATOMIC_SPECIES
Fe  55.845  Fe.pbe-spn-kjpaw_psl.0.2.1.UPF
Na  22.98977  Na_ONCV_PBE-1.0.oncvpsp.upf
O  15.9994  O.pbe-n-kjpaw_psl.0.1.UPF
P  30.973761  P.pbe-n-rrkjus_psl.1.0.0.UPF
ATOMIC_POSITIONS {angstrom}
Na 5.4818326023 2.6029139868 2.3998815707
Fe 2.8877996331 4.6543969452 4.9143391969
Fe 2.1933303368 1.5264759899 2.4254165692
Fe 7.5554119603 1.4871538768 0.0276668264
Fe 8.1606844895 4.6817077138 2.5244153459
P 1.1118747749 4.6445152951 2.198346682
P 4.0508358213 1.4999697449 4.6721357559
P 9.2742579385 1.5508294923 2.7541834659
P 6.3134884356 4.6553387571 0.2774002906
O 1.3745173255 4.6304917798 3.7173894747
O 3.8055751435 1.5449592467 1.2477763089
O 9.0543649496 1.5421898777 1.2298450655
O 6.5399361071 4.6113091971 3.696309377
O 4.7981689213 4.6059160929 0.6119827523
O 0.3755522944 1.5583815613 3.0841689255
O 5.5885052216 1.5180334875 4.4058405131
O 9.9950963314 4.6450262167 1.9212226209
O 1.8292710463 5.8654637826 1.494471802
O 3.3341697864 0.2898289345 3.9787092269
O 8.498131168 2.741477625 3.4447252683
O 7.0507515069 3.447103322 1.0000784116
O 8.5293031388 0.3329452738 3.4478896098
O 7.0457898479 5.8699743889 0.971721969
O 1.8439101504 3.4411773174 1.4795988384
O 3.3869410685 2.7182070623 3.9111091324
CELL_PARAMETERS {angstrom}
10.4063 0 0
0 6.2187 0
0 0 4.9469
!End