&CONTROL
calculation = "scf"
etot_conv_thr = 1.0d-5
forc_conv_thr = 1.0d-4
pseudo_dir = '/opt/QEpot/SSSP_precision_pseudos/'
disk_io = 'none'
tprnfor = .true.
tstress = .true.
verbosity = 'high'
/
!controlend

&SYSTEM
ntyp = 4
occupations = 'smearing'
smearing = 'cold'
degauss =   7.3498618000d-03
ecutrho = 1.080d+03
ecutwfc = 1.000d+02
ibrav = 0
nat = 25
nosym = .false.
starting_magnetization(1) =   3.1250000000d-01
starting_magnetization(2) =   0.0000000000d+00
starting_magnetization(3) =   0.0000000000d+00
starting_magnetization(4) =   0.0000000000d+00 
nspin = 2
!systemend
/

&ELECTRONS
conv_thr =   2.0000000000d-10
electron_maxstep = 1000
mixing_beta =   4.0000000000d-01
/
K_POINTS {automatic}
5 7 9 0 0 0
ATOMIC_SPECIES
Fe  55.845  Fe.pbe-spn-kjpaw_psl.0.2.1.UPF
Na  22.98977  Na_ONCV_PBE-1.0.oncvpsp.upf
O  15.9994  O.pbe-n-kjpaw_psl.0.1.UPF
P  30.973761  P.pbe-n-rrkjus_psl.1.0.0.UPF
ATOMIC_POSITIONS {angstrom}
Na 5.299103023533 2.51614779242 2.319883713093
Fe 2.791540272117 4.49925183732 4.750528187393
Fe 2.120214596543 1.47559075565 2.3445684143
Fe 7.30356383578 1.43758061022 0.026745744643
Fe 7.88866013454 4.52564793863 2.440265865007
P 1.074809145473 4.48969970683 2.125069679297
P 3.91581160212 1.44997012623 4.51639652219
P 8.96511902544 1.49913744862 2.66237557383
P 6.10304207691 4.50015956023 0.26815561892
O 1.328698930983 4.47614397728 3.59347466086
O 3.678721053577 1.49346267758 1.20618382878
O 8.752553350983 1.49078158872 1.188849066697
O 6.321935128643 4.45759877743 3.573098544657
O 4.638229088803 4.45238688496 0.591581632367
O 0.363034528677 1.50643530036 2.981363888183
O 5.402222172123 1.46743327228 4.258981282757
O 9.661925220317 4.49019264245 1.857181852563
O 1.76829573065 5.66994988918 1.44465755301
O 3.223029176577 0.28016777446 3.846083986943
O 8.21485705497 2.65009403004 3.329900201133
O 6.815722041807 3.33220271133 0.966744139877
O 8.244995087277 0.32184487999 3.332960683267
O 6.8109337563 5.67430816143 0.939328914767
O 1.78244933928 3.3264738376 1.430278068987
O 3.2740405123 2.62759933382 3.780737911393
CELL_PARAMETERS {angstrom}
10.059423333333 0 0
0 6.01141 0
0 0 4.782003333333
!End