&CONTROL
calculation = "scf"
etot_conv_thr = 1.0d-5
forc_conv_thr = 1.0d-4
pseudo_dir = '/opt/QEpot/SSSP_precision_pseudos/'
disk_io = 'none'
tprnfor = .true.
tstress = .true.
verbosity = 'high'
/
!controlend

&SYSTEM
ntyp = 4
occupations = 'smearing'
smearing = 'cold'
degauss =   7.3498618000d-03
ecutrho = 1.080d+03
ecutwfc = 1.000d+02
ibrav = 0
nat = 25
nosym = .false.
starting_magnetization(1) =   3.1250000000d-01
starting_magnetization(2) =   0.0000000000d+00
starting_magnetization(3) =   0.0000000000d+00
starting_magnetization(4) =   0.0000000000d+00
nspin = 2
!systemend
/

&ELECTRONS
conv_thr =   2.0000000000d-10
electron_maxstep = 1000
mixing_beta =   4.0000000000d-01
/
K_POINTS {automatic}
5 7 9 0 0 0
ATOMIC_SPECIES
Fe  55.845  Fe.pbe-spn-kjpaw_psl.0.2.1.UPF
Na  22.98977  Na_ONCV_PBE-1.0.oncvpsp.upf
O  15.9994  O.pbe-n-kjpaw_psl.0.1.UPF
P  30.973761  P.pbe-n-rrkjus_psl.1.0.0.UPF
ATOMIC_POSITIONS {angstrom}
Na 5.7559222497 2.6029115094 2.3998797032
Fe 3.032190295575 4.6543984524 4.9143395042
Fe 2.302991716935 1.5264731955 2.425415601
Fe 7.93318140783 1.4871523554 0.0276680117
Fe 8.56871704269 4.6817047641 2.5244129638
P 1.16746510629 4.6445169381 2.1983479441
P 4.25338156782 1.4999690961 4.6721343333
P 9.73797411384 1.5508318434 2.7541816281
P 6.629166393885 4.6553374761 0.2774023644
O 1.443241942275 4.6304937696 3.7173875802
O 3.995852178885 1.5449613906 1.2477763746
O 9.507083812275 1.5421878504 1.2298438621
O 6.866929536285 4.6113090801 3.6963088393
O 5.038076424045 4.6059174672 0.611980999
O 0.394330608735 1.5583813452 3.0841695395
O 5.867930980065 1.5180344196 4.4058427063
O 10.494849808275 4.6450268715 1.9212226061
O 1.920735017775 5.8654654026 1.4944733307
O 3.500876519385 0.2898287322 3.9787075727
O 8.923034387295 2.7414765828 3.444724346
O 7.40328428679 3.4471062531 1.0000801447
O 8.955770525835 0.3329429793 3.447890362
O 7.39808321805 5.8699739601 0.971719567
O 1.93610876508 3.441179832 1.4795980024
O 3.55628538405 2.7182062074 3.9111081842
CELL_PARAMETERS {angstrom}
10.926615 0 0
0 6.2187 0
0 0 4.9469
!End