&CONTROL
calculation = "scf"
etot_conv_thr = 1.0d-5
forc_conv_thr = 1.0d-4
pseudo_dir = '/opt/QEpot/SSSP_precision_pseudos/'
disk_io = 'none'
tprnfor = .true.
tstress = .true.
verbosity = 'high'
/
!controlend

&SYSTEM
ntyp = 4
occupations = 'smearing'
smearing = 'cold'
degauss =   7.3498618000d-03
ecutrho = 1.080d+03
ecutwfc = 1.000d+02
ibrav = 0
nat = 25
nosym = .false.
starting_magnetization(1) =   3.1250000000d-01
starting_magnetization(2) =   0.0000000000d+00
starting_magnetization(3) =   0.0000000000d+00
starting_magnetization(4) =   0.0000000000d+00
nspin = 2
!systemend
/

&ELECTRONS
conv_thr =   2.0000000000d-10
electron_maxstep = 1000
mixing_beta =   4.0000000000d-01
/
K_POINTS {automatic}
5 7 9 0 0 0
ATOMIC_SPECIES
Fe  55.845  Fe.pbe-spn-kjpaw_psl.0.2.1.UPF
Na  22.98977  Na_ONCV_PBE-1.0.oncvpsp.upf
O  15.9994  O.pbe-n-kjpaw_psl.0.1.UPF
P  30.973761  P.pbe-n-rrkjus_psl.1.0.0.UPF
ATOMIC_POSITIONS {angstrom}
Na 5.390466868767 2.55952965091 2.359881708147
Fe 2.839670276808 4.57682514486 4.832433845797
Fe 2.156770020622 1.501031975575 2.38499200765
Fe 7.42948735019 1.46236648281 0.027206878172
Fe 8.02467151617 4.603676351365 2.482339414403
P 1.093340337637 4.567108322465 2.161708811698
P 3.98332559526 1.474969611165 4.594265427745
P 9.11969004312 1.52498464601 2.708278600965
P 6.208266940305 4.577748518165 0.27277899166
O 1.351607533242 4.55331887344 3.65543112053
O 3.742147278638 1.51921203409 1.22698010169
O 8.903459443242 1.51648471956 1.209346464398
O 6.430934010172 4.534453928765 3.634703691978
O 4.718198555852 4.52915217608 0.601781315683
O 0.369293744688 1.53240832278 3.032766713842
O 5.495363933712 1.49273384594 4.332411994528
O 9.828510137908 4.567609756975 1.889202229332
O 1.798783588075 5.76770764589 1.469565441855
O 3.278598645138 0.28499825333 3.912395779822
O 8.356492521435 2.69578530642 3.387312273567
O 6.933234490803 3.389654482215 0.983412142288
O 8.387150174988 0.327393929645 3.390425522633
O 6.92836364865 5.772141060765 0.955524240883
O 1.81318122444 3.3838268348 1.454938035693
O 3.33048948665 2.67290277061 3.845923047797
CELL_PARAMETERS {angstrom}
10.232861666667 0 0
0 6.115055 0
0 0 4.864451666667
!End