&CONTROL
calculation = "scf"
etot_conv_thr = 1.0d-5
forc_conv_thr = 1.0d-4
pseudo_dir = '/opt/QEpot/SSSP_precision_pseudos/'
disk_io = 'none'
tprnfor = .true.
tstress = .true.
verbosity = 'high'
/
!controlend

&SYSTEM
ntyp = 4
occupations = 'smearing'
smearing = 'cold'
degauss =   7.3498618000d-03
ecutrho = 1.080d+03
ecutwfc = 1.000d+02
ibrav = 0
nat = 25
nosym = .false.
starting_magnetization(1) =   3.1250000000d-01
starting_magnetization(2) =   0.0000000000d+00
starting_magnetization(3) =   0.0000000000d+00
starting_magnetization(4) =   0.0000000000d+00
nspin = 2
!systemend
/

&ELECTRONS
conv_thr =   2.0000000000d-10
electron_maxstep = 1000
mixing_beta =   4.0000000000d-01
/
K_POINTS {automatic}
5 7 9 0 0 0
ATOMIC_SPECIES
Fe  55.845  Fe.pbe-spn-kjpaw_psl.0.2.1.UPF
Na  22.98977  Na_ONCV_PBE-1.0.oncvpsp.upf
O  15.9994  O.pbe-n-kjpaw_psl.0.1.UPF
P  30.973761  P.pbe-n-rrkjus_psl.1.0.0.UPF
ATOMIC_POSITIONS {angstrom}
Na 5.664558404467 2.68967522638 2.479875693307
Fe 2.984060290883 4.80954506748 5.078150821007
Fe 2.266436292857 1.57735563535 2.5062627877
Fe 7.80725789342 1.53672410058 0.028590278757
Fe 8.43270566106 4.83776158957 2.608560062593
P 1.148933914127 4.79933416937 2.271626208903
P 4.18586757468 1.54996806597 4.82787214441
P 9.58340309616 1.60252623818 2.84598768237
P 6.52394153049 4.81051539197 0.28664910988
O 1.420333340017 4.78484356192 3.84130049954
O 3.932425953823 1.59646010362 1.28936892042
O 9.356177720017 1.59359411208 1.270838657503
O 6.757930654757 4.76501938277 3.819519133943
O 4.958106956997 4.75944804944 0.632380365633
O 0.388071392723 1.61032739004 3.186975190817
O 5.774789218477 1.56863556692 4.552704129843
O 10.328264890683 4.79986110055 1.985263359637
O 1.89024716035 6.06098091602 1.54428910839
O 3.445307050823 0.29948968994 4.111331158457
O 8.78139892083 2.83285913556 3.559548490867
O 7.285771837793 3.56200979487 1.033416149523
O 8.813615438123 0.34404107861 3.562820040733
O 7.2806533257 6.06563975877 1.004110219233
O 1.90537687992 3.5558858264 1.528917935813
O 3.4998364097 2.80881308098 4.041478457007
CELL_PARAMETERS {angstrom}
10.753176666667 0 0
0 6.42599 0
0 0 5.111796666667
!End