&CONTROL
calculation = "scf"
etot_conv_thr = 1.0d-5
forc_conv_thr = 1.0d-4
pseudo_dir = '/opt/QEpot/SSSP_precision_pseudos/'
disk_io = 'none'
tprnfor = .true.
tstress = .true.
verbosity = 'high'
/
!controlend

&SYSTEM
ntyp = 4
occupations = 'smearing'
smearing = 'cold'
degauss =   7.3498618000d-03
ecutrho = 1.080d+03
ecutwfc = 1.000d+02
ibrav = 0
nat = 25
nosym = .false.
starting_magnetization(1) =   3.1250000000d-01
starting_magnetization(2) =   0.0000000000d+00
starting_magnetization(3) =   0.0000000000d+00
starting_magnetization(4) =   0.0000000000d+00 
nspin = 2
!systemend
/

&ELECTRONS
conv_thr =   2.0000000000d-10
electron_maxstep = 1000
mixing_beta =   4.0000000000d-01
/
K_POINTS {automatic}
5 7 9 0 0 0
ATOMIC_SPECIES
Fe  55.845  Fe.pbe-spn-kjpaw_psl.0.2.1.UPF
Na  22.98977  Na_ONCV_PBE-1.0.oncvpsp.upf
O  15.9994  O.pbe-n-kjpaw_psl.0.1.UPF
P  30.973761  P.pbe-n-rrkjus_psl.1.0.0.UPF
ATOMIC_POSITIONS {angstrom}
Na 5.573194559233 2.64629336789 2.439877698253
Fe 2.935930286192 4.73197175994 4.996245162603
Fe 2.229880868778 1.551914415425 2.46583919435
Fe 7.68133437901 1.51193822799 0.028129145228
Fe 8.29669427943 4.759733176835 2.566486513197
P 1.130402721963 4.721925553735 2.234987076502
P 4.11835358154 1.524968581035 4.750003238855
P 9.42883207848 1.57667904079 2.800084655235
P 6.418716667095 4.732926434035 0.28202573714
O 1.397424737758 4.70766866576 3.77934403987
O 3.868999728762 1.57071074711 1.26857264751
O 9.205271627758 1.56789098124 1.250341259802
O 6.648931773228 4.688164231435 3.757913986622
O 4.878137489948 4.68268275832 0.622180682317
O 0.381812176712 1.58435436762 3.135572365158
O 5.681647456888 1.54333499326 4.479273418072
O 10.161679973092 4.722443986025 1.953242982868
O 1.859759302925 5.96322315931 1.519381219545
O 3.389737582262 0.29465921107 4.045019365578
O 8.639763454365 2.78716785918 3.502136418433
O 7.168259388797 3.504558023985 1.016748147112
O 8.671460350412 0.338492028955 3.505355201367
O 7.16322343335 5.967806859435 0.987914893117
O 1.87464499476 3.4985328292 1.504257969107
O 3.44338743535 2.76350964419 3.976293320603
CELL_PARAMETERS {angstrom}
10.579738333333 0 0
0 6.322345 0
0 0 5.029348333333
!End