&CONTROL
calculation = "scf"
etot_conv_thr = 1.0d-5
forc_conv_thr = 1.0d-4
pseudo_dir = '/opt/QEpot/SSSP_precision_pseudos/'
disk_io = 'none'
tprnfor = .true.
tstress = .true.
verbosity = 'high'
/
!controlend

&SYSTEM
ntyp = 4
occupations = 'smearing'
smearing = 'cold'
degauss =   7.3498618000d-03
ecutrho = 1.080d+03
ecutwfc = 1.000d+02
ibrav = 0
nat = 25
nosym = .false.
starting_magnetization(1) =   3.1250000000d-01
starting_magnetization(2) =   0.0000000000d+00
starting_magnetization(3) =   0.0000000000d+00
starting_magnetization(4) =   0.0000000000d+00 
nspin = 2
!systemend
/

&ELECTRONS
conv_thr =   2.0000000000d-10
electron_maxstep = 1000
mixing_beta =   4.0000000000d-01
/
K_POINTS {automatic}
5 7 9 0 0 0
ATOMIC_SPECIES
Fe  55.845  Fe.pbe-spn-kjpaw_psl.0.2.1.UPF
Na  22.98977  Na_ONCV_PBE-1.0.oncvpsp.upf
O  15.9994  O.pbe-n-kjpaw_psl.0.1.UPF
P  30.973761  P.pbe-n-rrkjus_psl.1.0.0.UPF
ATOMIC_POSITIONS {angstrom}
Na 5.7559222497 2.73305708487 2.51987368836
Fe 3.032190295575 4.88711837502 5.16005647941
Fe 2.302991716935 1.602796855275 2.54668638105
Fe 7.93318140783 1.56150997317 0.029051412285
Fe 8.56871704269 4.915790002305 2.65063361199
P 1.16746510629 4.876742785005 2.308265341305
P 4.25338156782 1.574967550905 4.905741049965
P 9.73797411384 1.62837343557 2.891890709505
P 6.629166393885 4.888104349905 0.29127248262
O 1.443241942275 4.86201845808 3.90325695921
O 3.995852178885 1.62220946013 1.31016519333
O 9.507083812275 1.61929724292 1.291336055205
O 6.866929536285 4.841874534105 3.881124281265
O 5.038076424045 4.83621334056 0.64258004895
O 0.394330608735 1.63630041246 3.238378016475
O 5.867930980065 1.59393614058 4.626134841615
O 10.494849808275 4.877278215075 2.017283736405
O 1.920735017775 6.15873867273 1.569196997235
O 3.500876519385 0.30432016881 4.177642951335
O 8.923034387295 2.87855041194 3.6169605633
O 7.40328428679 3.619461565755 1.050084151935
O 8.955770525835 0.349590128265 3.6202848801
O 7.39808321805 6.163472658105 1.02030554535
O 1.93610876508 3.6132388236 1.55357790252
O 3.55628538405 2.85411651777 4.10666359341
CELL_PARAMETERS {angstrom}
10.926615 0 0
0 6.529635 0
0 0 5.194245
!End