&CONTROL
calculation = "scf"
etot_conv_thr = 1.0d-5
forc_conv_thr = 1.0d-4
pseudo_dir = '/opt/QEpot/SSSP_precision_pseudos/'
disk_io = 'none'
tprnfor = .true.
tstress = .true.
verbosity = 'high'
/
!controlend

&SYSTEM
ntyp = 4
occupations = 'smearing'
smearing = 'cold'
degauss =   7.3498618000d-03
ecutrho = 1.080d+03
ecutwfc = 1.000d+02
ibrav = 0
nat = 25
nosym = .false.
starting_magnetization(1) =   3.1250000000d-01
starting_magnetization(2) =   0.0000000000d+00
starting_magnetization(3) =   0.0000000000d+00
starting_magnetization(4) =   0.0000000000d+00 
nspin = 2
!systemend
/

&ELECTRONS
conv_thr =   2.0000000000d-10
electron_maxstep = 1000
mixing_beta =   4.0000000000d-01
/
K_POINTS {automatic}
5 7 9 0 0 0
ATOMIC_SPECIES
Fe  55.845  Fe.pbe-spn-kjpaw_psl.0.2.1.UPF
Na  22.98977  Na_ONCV_PBE-1.0.oncvpsp.upf
O  15.9994  O.pbe-n-kjpaw_psl.0.1.UPF
P  30.973761  P.pbe-n-rrkjus_psl.1.0.0.UPF
ATOMIC_POSITIONS {angstrom}
Na 5.664558404467 2.68967522638 2.3998797032
Fe 2.984060290883 4.80954506748 4.9143395042
Fe 2.266436292857 1.57735563535 2.425415601
Fe 7.80725789342 1.53672410058 0.0276680117
Fe 8.43270566106 4.83776158957 2.5244129638
P 1.148933914127 4.79933416937 2.1983479441
P 4.18586757468 1.54996806597 4.6721343333
P 9.58340309616 1.60252623818 2.7541816281
P 6.52394153049 4.81051539197 0.2774023644
O 1.420333340017 4.78484356192 3.7173875802
O 3.932425953823 1.59646010362 1.2477763746
O 9.356177720017 1.59359411208 1.2298438621
O 6.757930654757 4.76501938277 3.6963088393
O 4.958106956997 4.75944804944 0.611980999
O 0.388071392723 1.61032739004 3.0841695395
O 5.774789218477 1.56863556692 4.4058427063
O 10.328264890683 4.79986110055 1.9212226061
O 1.89024716035 6.06098091602 1.4944733307
O 3.445307050823 0.29948968994 3.9787075727
O 8.78139892083 2.83285913556 3.444724346
O 7.285771837793 3.56200979487 1.0000801447
O 8.813615438123 0.34404107861 3.447890362
O 7.2806533257 6.06563975877 0.971719567
O 1.90537687992 3.5558858264 1.4795980024
O 3.4998364097 2.80881308098 3.9111081842
CELL_PARAMETERS {angstrom}
10.753176666667 0 0
0 6.42599 0
0 0 4.9469
!End