&CONTROL
calculation = "scf"
etot_conv_thr = 1.0d-5
forc_conv_thr = 1.0d-4
pseudo_dir = '/opt/QEpot/SSSP_precision_pseudos/'
disk_io = 'none'
tprnfor = .true.
tstress = .true.
verbosity = 'high'
/
!controlend

&SYSTEM
ntyp = 4
occupations = 'smearing'
smearing = 'cold'
degauss =   7.3498618000d-03
ecutrho =   1.080d+03
ecutwfc =   1.000d+02
ibrav = 0
nat = 25
nosym = .false.
starting_magnetization(1) =   3.1250000000d-01
starting_magnetization(2) =   0.0000000000d+00
starting_magnetization(3) =   0.0000000000d+00
starting_magnetization(4) =   0.0000000000d+00
nspin = 2
!systemend
/

&ELECTRONS
conv_thr =   2.0000000000d-10
electron_maxstep = 1000
mixing_beta =   4.0000000000d-01
/
K_POINTS {automatic}
5 7 9 0 0 0
ATOMIC_SPECIES
Fe  55.845  Fe.pbe-spn-kjpaw_psl.0.2.1.UPF
Na  22.98977  Na_ONCV_PBE-1.0.oncvpsp.upf
O  15.9994  O.pbe-n-kjpaw_psl.0.1.UPF
P  30.973761  P.pbe-n-rrkjus_psl.1.0.0.UPF
ATOMIC_POSITIONS {angstrom}
Na 0.1205015637 0.4752848145 0.4339036673
Fe 3.0318276565 4.7510564349 4.6143118122
Fe 2.2905893809 1.7703682629 2.5867942138
Fe 7.3477524781 1.4371325444 0.4775981537
Fe 8.1405709249 4.5075328798 2.5812017096
P 1.0236235739 4.4354296113 1.9685183269
P 4.0799416027 1.5618529277 4.7447089164
P 9.3529784237 1.7066877146 3.1231009108
P 6.3219611277 4.6262216105 0.4008463738
O 1.471565713 4.5434999655 3.4420094509
O 3.6980674012 1.5373108985 1.2832507727
O 8.932135717 1.5633179432 1.6458655025
O 6.7094027201 4.6694692375 3.8615999573
O 4.7919798253 4.6372189446 0.5609727049
O 0.4582161978 1.3330614613 3.2910494863
O 5.6048317315 1.5408801421 4.5571257562
O 9.9397361606 4.8630556507 1.7901324975
O 1.889875762 5.4423570098 1.1185020426
O 3.3771956826 0.3928342684 3.9382059694
O 9.0099691837 3.1131776593 3.6691223447
O 7.0112660424 3.4087646141 1.1580173187
O 8.5421456437 0.6867531306 4.0042377731
O 6.9982687661 5.8115491387 1.2109836578
O 1.3199763228 3.0208810766 1.3931392101
O 3.4119403982 2.7890700585 3.9831498427
CELL_PARAMETERS {angstrom}
10.4063 0 0
0 6.2187 0
0 0 4.9469
!End