&CONTROL
calculation = "scf"
etot_conv_thr = 1.0d-5
forc_conv_thr = 1.0d-4
pseudo_dir = '/opt/QEpot/SSSP_precision_pseudos/'
disk_io = 'none'
tprnfor = .true.
tstress = .true.
verbosity = 'high'
/
!controlend

&SYSTEM
ntyp = 4
occupations = 'smearing'
smearing = 'cold'
degauss =   7.3498618000d-03
ecutrho = 1.080d+03
ecutwfc = 1.000d+02
ibrav = 0
nat = 25
nosym = .false.
starting_magnetization(1) =   3.1250000000d-01
starting_magnetization(2) =   0.0000000000d+00
starting_magnetization(3) =   0.0000000000d+00
starting_magnetization(4) =   0.0000000000d+00 
nspin = 2
!systemend
/

&ELECTRONS
conv_thr =   2.0000000000d-10
electron_maxstep = 1000
mixing_beta =   4.0000000000d-01
/
K_POINTS {automatic}
5 7 9 0 0 0
ATOMIC_SPECIES
Fe  55.845  Fe.pbe-spn-kjpaw_psl.0.2.1.UPF
Na  22.98977  Na_ONCV_PBE-1.0.oncvpsp.upf
O  15.9994  O.pbe-n-kjpaw_psl.0.1.UPF
P  30.973761  P.pbe-n-rrkjus_psl.1.0.0.UPF
ATOMIC_POSITIONS {angstrom}
Na 0.1265302017 0.49904694378 0.45559761744
Fe 3.183414647175 4.988608491825 4.84502552016
Fe 2.40512278734 1.858889139975 2.71613304144
Fe 7.715140805505 1.508992118865 0.501478383525
Fe 8.547595895895 4.732907985225 2.71026354459
P 1.07480741109 4.657203397035 2.06694591285
P 4.283943309975 1.63994394879 4.98194581836
P 9.8206230297 1.79201914794 3.279256724625
P 6.638060658495 4.857532598835 0.42088967235
O 1.545143553765 4.770675394065 3.614108922795
O 3.88296931932 1.61417800908 1.347413124225
O 9.378739792485 1.64148494265 1.72815647697
O 7.04486946156 4.902939680625 4.05467958945
O 5.03157508812 4.869076993515 0.589022188755
O 0.481131638295 1.399712147505 3.455601342375
O 5.885074839 1.61792601957 4.78498004796
O 10.436720216475 5.106207218175 1.87964143815
O 1.984371623535 5.7144753666 1.17442918299
O 3.54605807241 0.41247704295 4.13511766752
O 9.460470872685 3.26883975516 3.852576710745
O 7.36182870948 3.579199836345 1.215915617805
O 8.969253968745 0.72109371159 4.20445044978
O 7.348181367345 6.10212673728 1.27153039902
O 1.38597555306 3.17192691249 1.462798082655
O 3.582542039895 2.928521708595 4.182307383345
CELL_PARAMETERS {angstrom}
10.926615 0 0
0 6.529635 0
0 0 5.194245
!End