&CONTROL
calculation = "scf"
etot_conv_thr = 1.0d-5
forc_conv_thr = 1.0d-4
pseudo_dir = '/opt/QEpot/SSSP_precision_pseudos/'
disk_io = 'none'
tprnfor = .true.
tstress = .true.
verbosity = 'high'
/
!controlend

&SYSTEM
ntyp = 4
occupations = 'smearing'
smearing = 'cold'
degauss =   7.3498618000d-03
ecutrho = 1.080d+03
ecutwfc = 1.000d+02
ibrav = 0
nat = 25
nosym = .false.
starting_magnetization(1) =   3.1250000000d-01
starting_magnetization(2) =   0.0000000000d+00
starting_magnetization(3) =   0.0000000000d+00
starting_magnetization(4) =   0.0000000000d+00 
nspin = 2
!systemend
/

&ELECTRONS
conv_thr =   2.0000000000d-10
electron_maxstep = 1000
mixing_beta =   4.0000000000d-01
/
K_POINTS {automatic}
5 7 9 0 0 0
ATOMIC_SPECIES
Fe  55.845  Fe.pbe-spn-kjpaw_psl.0.2.1.UPF
Na  22.98977  Na_ONCV_PBE-1.0.oncvpsp.upf
O  15.9994  O.pbe-n-kjpaw_psl.0.1.UPF
P  30.973761  P.pbe-n-rrkjus_psl.1.0.0.UPF
ATOMIC_POSITIONS {angstrom}
Na 0.1144797063 0.45151866342 0.4339024928
Fe 2.880232299825 4.513502921175 4.6143100192
Fe 2.17606347426 1.681852079025 2.5867933728
Fe 6.980365490695 1.365278583735 0.4775984605
Fe 7.733539143905 4.282154843775 2.5812033758
P 0.97244480051 4.213660216365 1.968519917
P 3.875948709025 1.48375881081 4.7447103032
P 8.8853255983 1.62135065766 3.1231016425
P 6.005864405305 4.394910446565 0.400847307
O 1.397987024835 4.316325356535 3.4420084979
O 3.51316271748 1.46044677012 1.2832505945
O 8.485526478915 1.48515304335 1.6458633114
O 6.37392951284 4.435993044375 3.861599609
O 4.55237746068 4.405355375085 0.5609735131
O 0.435309577505 1.266406228695 3.2910488975
O 5.324591521 1.46383782723 4.5571238552
O 9.442746862525 4.619901768825 1.790134703
O 1.795383849865 5.1702396174 1.1185039838
O 3.20833825599 0.37319351505 3.9382073024
O 8.559473646715 2.95752168324 3.6691206769
O 6.66070216572 3.238323661455 1.1580148741
O 8.115039305055 0.65241812001 4.0042385236
O 6.648354570455 5.52097180992 1.2109813324
O 1.25397788134 2.86983863511 1.3931410311
O 3.241347559905 2.649614879205 3.9831498889
CELL_PARAMETERS {angstrom}
9.885985 0 0
0 5.907765 0
0 0 4.9469
!End