&CONTROL
calculation = "scf"
etot_conv_thr = 1.0d-5
forc_conv_thr = 1.0d-4
pseudo_dir = '/opt/QEpot/SSSP_precision_pseudos/'
disk_io = 'none'
tprnfor = .true.
tstress = .true.
verbosity = 'high'
/
!controlend

&SYSTEM
ntyp = 4
occupations = 'smearing'
smearing = 'cold'
degauss =   7.3498618000d-03
ecutrho = 1.080d+03
ecutwfc = 1.000d+02
ibrav = 0
nat = 25
nosym = .false.
starting_magnetization(1) =   3.1250000000d-01
starting_magnetization(2) =   0.0000000000d+00
starting_magnetization(3) =   0.0000000000d+00
starting_magnetization(4) =   0.0000000000d+00  
nspin = 2
!systemend
/

&ELECTRONS
conv_thr =   2.0000000000d-10
electron_maxstep = 1000
mixing_beta =   4.0000000000d-01
/
K_POINTS {automatic}
5 7 9 0 0 0
ATOMIC_SPECIES
Fe  55.845  Fe.pbe-spn-kjpaw_psl.0.2.1.UPF
Na  22.98977  Na_ONCV_PBE-1.0.oncvpsp.upf
O  15.9994  O.pbe-n-kjpaw_psl.0.1.UPF
P  30.973761  P.pbe-n-rrkjus_psl.1.0.0.UPF
ATOMIC_POSITIONS {angstrom}
Na 0.1245217858 0.4752828036 0.4339024928
Fe 3.13288425595 4.7510557065 4.6143100192
Fe 2.36694623516 1.7703706095 2.5867933728
Fe 7.592678253037 1.4371353513 0.4775984605
Fe 8.411919770563 4.5075314145 2.5812033758
P 1.057746975993 4.4354318067 1.968519917
P 4.215944209817 1.5618513798 4.7447103032
P 9.664740124467 1.7066849028 3.1231016425
P 6.532694616297 4.6262215227 0.400847307
O 1.52061746561 4.5435003753 3.4420084979
O 3.82133488568 1.5373123896 1.2832505945
O 9.22987090689 1.563318993 1.6458633114
O 6.933046136773 4.6694663625 3.861599609
O 4.95170881688 4.6372161843 0.5609735131
O 0.473494628163 1.3330591881 3.2910488975
O 5.791660952667 1.5408819234 4.5571238552
O 10.271057990817 4.8630544935 1.790134703
O 1.952873661257 5.442357492 1.1185039838
O 3.48977143634 0.392835279 3.9382073024
O 9.310304668357 3.1131807192 3.6691206769
O 7.24497428552 3.4087617489 1.1580148741
O 8.82688485813 0.6867559158 4.0042385236
O 7.231543567863 5.8115492736 1.2109813324
O 1.363975941107 3.0208827738 1.3931410311
O 3.52567629323 2.7890682939 3.9831498889
CELL_PARAMETERS {angstrom}
10.753176666667 0 0
0 6.2187 0
0 0 4.9469
!End