&CONTROL
calculation = "scf"
etot_conv_thr = 1.0d-5
forc_conv_thr = 1.0d-4
pseudo_dir = '/opt/QEpot/SSSP_precision_pseudos/'
disk_io = 'none'
tprnfor = .true.
tstress = .true.
verbosity = 'high'
/
!controlend

&SYSTEM
ntyp = 4
occupations = 'smearing'
smearing = 'cold'
degauss =   7.3498618000d-03
ecutrho = 1.080d+03
ecutwfc = 1.000d+02
ibrav = 0
nat = 25
nosym = .false.
starting_magnetization(1) =   3.1250000000d-01
starting_magnetization(2) =   0.0000000000d+00
starting_magnetization(3) =   0.0000000000d+00
starting_magnetization(4) =   0.0000000000d+00
nspin = 2
!systemend
/

&ELECTRONS
conv_thr =   2.0000000000d-10
electron_maxstep = 1000
mixing_beta =   4.0000000000d-01
/
K_POINTS {automatic}
5 7 9 0 0 0
ATOMIC_SPECIES
Fe  55.845  Fe.pbe-spn-kjpaw_psl.0.2.1.UPF
Na  22.98977  Na_ONCV_PBE-1.0.oncvpsp.upf
O  15.9994  O.pbe-n-kjpaw_psl.0.1.UPF
P  30.973761  P.pbe-n-rrkjus_psl.1.0.0.UPF
ATOMIC_POSITIONS {angstrom}
Na 0.1164881222 0.45944004348 0.4339024928
Fe 2.93076269105 4.59268718295 4.6143100192
Fe 2.21424002644 1.71135825585 2.5867933728
Fe 7.102828043163 1.38923083959 0.4775984605
Fe 7.869215269237 4.35728036735 2.5812033758
P 0.989505235607 4.28758407981 1.968519917
P 3.943947809183 1.50978966714 4.7447103032
P 9.041208503533 1.64979540604 3.1231016425
P 6.111230447503 4.47201413861 0.400847307
O 1.42251311299 4.39205036279 3.4420084979
O 3.57479715112 1.48606864328 1.2832505945
O 8.63439536451 1.5112083599 1.6458633114
O 6.485752837627 4.51381748375 3.861599609
O 4.63224373192 4.48264231149 0.5609735131
O 0.442946587637 1.28862388183 3.2910488975
O 5.418005407333 1.48951919262 4.5571238552
O 9.608409088183 4.70095267705 1.790134703
O 1.826881812143 5.2609455756 1.1185039838
O 3.26462489206 0.3797407697 3.9382073024
O 8.709639851043 3.00940802856 3.6691206769
O 6.77755658968 3.29513635727 1.1580148741
O 8.25740841567 0.66386405194 4.0042385236
O 6.764992369937 5.61783096448 1.2109813324
O 1.275977493293 2.92018668134 1.3931410311
O 3.29821330657 2.69609935077 3.9831498889
CELL_PARAMETERS {angstrom}
10.059423333333 0 0
0 6.01141 0
0 0 4.9469
!End