&CONTROL
calculation = "scf"
etot_conv_thr = 1.0d-5
forc_conv_thr = 1.0d-4
pseudo_dir = '/opt/QEpot/SSSP_precision_pseudos/'
disk_io = 'none'
tprnfor = .true.
tstress = .true.
verbosity = 'high'
/
!controlend

&SYSTEM
ntyp = 4
occupations = 'smearing'
smearing = 'cold'
degauss =   7.3498618000d-03
ecutrho =   1.080d+03
ecutwfc =   1.000d+02
ibrav = 0
nat = 25
nosym = .false.
starting_magnetization(1) =   3.1250000000d-01
starting_magnetization(2) =   0.0000000000d+00
starting_magnetization(3) =   0.0000000000d+00
starting_magnetization(4) =   0.0000000000d+00
nspin = 2
!systemend
/

&ELECTRONS
conv_thr =   2.0000000000d-10
electron_maxstep = 1000
mixing_beta =   4.0000000000d-01
/
K_POINTS {automatic}
5 7 9 0 0 0
ATOMIC_SPECIES
Fe  55.845  Fe.pbe-spn-kjpaw_psl.0.2.1.UPF
Na  22.98977  Na_ONCV_PBE-1.0.oncvpsp.upf
O  15.9994  O.pbe-n-kjpaw_psl.0.1.UPF
P  30.973761  P.pbe-n-rrkjus_psl.1.0.0.UPF
ATOMIC_POSITIONS {angstrom}
Na 5.2031801743 2.205e-07 2.4734651841
Fe 2.8787405514 4.6358402647 4.924843422
Fe 2.2190911401 1.576695355 2.4242452703
Fe 7.5276193247 1.5828905481 0.0220861393
Fe 8.1872684001 4.6420353658 2.522685401
P 1.128094838 4.6712131139 2.2018463336
P 4.0782218087 1.5799031771 4.6764715757
P 9.2782619289 1.5475173526 2.7450836923
P 6.3281412248 4.6388275946 0.2704511307
O 1.3723482581 4.6745849682 3.7227392359
O 3.8622774959 1.5306318352 1.2582971806
O 9.0340115732 1.5441457125 1.224191025
O 6.5440818414 4.688098669 3.6886378776
O 4.8079962751 4.6951967806 0.6073641911
O 0.3883152287 1.5448240225 3.0465480461
O 5.5983616898 1.5235338827 4.3395666005
O 10.0180466773 4.6739065617 1.9003821778
O 1.8793571776 5.8688776497 1.4935559771
O 3.3650565719 0.3710579208 3.9343253042
O 8.5469951215 2.7669841631 3.4448898274
O 7.0521817586 3.4195306629 0.9470978006
O 8.5270031209 0.349853708 3.4533736386
O 7.0413038905 5.847673168 1.012605337
O 1.8593650492 3.4517458343 1.5020399091
O 3.3541788791 2.7991994685 3.9998327223
CELL_PARAMETERS {angstrom}
10.4063 0 0
0 6.2187 0
0 0 4.9469
!End