&CONTROL
calculation = "scf"
etot_conv_thr = 1.0d-5
forc_conv_thr = 1.0d-4
pseudo_dir = '/opt/QEpot/SSSP_precision_pseudos/'
disk_io = 'none'
tprnfor = .true.
tstress = .true.
verbosity = 'high'
/
!controlend

&SYSTEM
ntyp = 4
occupations = 'smearing'
smearing = 'cold'
degauss =   7.3498618000d-03
ecutrho = 1.080d+03
ecutwfc = 1.000d+02
ibrav = 0
nat = 25
nosym = .false.
starting_magnetization(1) =   3.1250000000d-01
starting_magnetization(2) =   0.0000000000d+00
starting_magnetization(3) =   0.0000000000d+00
starting_magnetization(4) =   0.0000000000d+00
nspin = 2
!systemend
/

&ELECTRONS
conv_thr =   2.0000000000d-10
electron_maxstep = 1000
mixing_beta =   4.0000000000d-01
/
K_POINTS {automatic}
5 7 9 0 0 0
ATOMIC_SPECIES
Fe  55.845  Fe.pbe-spn-kjpaw_psl.0.2.1.UPF
Na  22.98977  Na_ONCV_PBE-1.0.oncvpsp.upf
O  15.9994  O.pbe-n-kjpaw_psl.0.1.UPF
P  30.973761  P.pbe-n-rrkjus_psl.1.0.0.UPF
ATOMIC_POSITIONS {angstrom}
Na 5.289900905882 0 2.514689254712
Fe 2.926715334103 4.71310588246 5.006922469115
Fe 2.256076300892 1.602973673645 2.464647238795
Fe 7.653075897922 1.609270729265 0.022456040308
Fe 8.323725510872 4.71940293808 2.564731270628
P 1.146896534025 4.74906738082 2.238542825773
P 4.146188873095 1.606236003665 4.754413977343
P 9.432894698 1.573309230905 2.79083568365
P 6.433612938668 4.71614060806 0.274959502732
O 1.395224152185 4.75249409181 3.784785794767
O 3.92664872294 1.55614406423 1.279270071415
O 9.184577659578 1.569882519915 1.244592714657
O 6.653153088823 4.766232547495 3.750113467357
O 4.888124762935 4.773452665485 0.617488300322
O 0.394782935908 1.57057165552 3.097324171083
O 5.69166646909 1.54892394624 4.411890209102
O 10.185018875855 4.751804956205 1.93205433834
O 1.910679583523 5.966694126715 1.518450790103
O 3.421138245635 0.37724168146 3.999896052332
O 8.689445905578 2.81310211837 3.502302386928
O 7.169719392687 3.476524746255 0.962883826462
O 8.66912222824 0.35568248501 3.51092771932
O 7.158663566128 5.945134930265 1.029482457092
O 1.890355906185 3.509274493355 1.527076122495
O 3.410082419077 2.84585186547 4.066494682962
CELL_PARAMETERS {angstrom}
10.579738333333 0 0
0 6.322345 0
0 0 5.029348333333
!End