&CONTROL
calculation = "scf"
etot_conv_thr = 1.0d-5
forc_conv_thr = 1.0d-4
pseudo_dir = '/opt/QEpot/SSSP_precision_pseudos/'
disk_io = 'none'
tprnfor = .true.
tstress = .true.
verbosity = 'high'
/
!controlend

&SYSTEM
ntyp = 4
occupations = 'smearing'
smearing = 'cold'
degauss =   7.3498618000d-03
ecutrho = 1.080d+03
ecutwfc = 1.000d+02
ibrav = 0
nat = 25
nosym = .false.
starting_magnetization(1) =   3.1250000000d-01
starting_magnetization(2) =   0.0000000000d+00
starting_magnetization(3) =   0.0000000000d+00
starting_magnetization(4) =   0.0000000000d+00 
nspin = 2
!systemend
/

&ELECTRONS
conv_thr =   2.0000000000d-10
electron_maxstep = 1000
mixing_beta =   4.0000000000d-01
/
K_POINTS {automatic}
5 7 9 0 0 0
ATOMIC_SPECIES
Fe  55.845  Fe.pbe-spn-kjpaw_psl.0.2.1.UPF
Na  22.98977  Na_ONCV_PBE-1.0.oncvpsp.upf
O  15.9994  O.pbe-n-kjpaw_psl.0.1.UPF
P  30.973761  P.pbe-n-rrkjus_psl.1.0.0.UPF
ATOMIC_POSITIONS {angstrom}
Na 5.029741844937 6.01141 2.4734648407
Fe 2.782778514393 4.48131378988 4.9248417729
Fe 2.145121728717 1.52413890281 2.4242431857
Fe 7.276695116057 1.53012626717 0.0220879085
Fe 7.914361961157 4.48730115424 2.5226864957
P 1.09049178645 4.51550668996 2.2018454024
P 3.94227794491 1.52724079037 4.6764727646
P 8.968981844 1.49593336709 2.745084279
P 6.117205744963 4.48419926668 0.2704519699
O 1.32660657093 4.51876487418 3.722740126
O 3.73353485132 1.47961238894 1.2582984309
O 8.732877118943 1.49267518287 1.2241895554
O 6.325948838553 4.53182766811 3.6886361974
O 4.64772518443 4.53869269833 0.6073655413
O 0.375367381683 1.49333042656 3.046548365
O 5.41174844602 1.47274735872 4.3395641401
O 9.68411630819 4.51810963049 1.9003813164
O 1.816711735153 5.67325015327 1.4935581542
O 3.25288554503 0.35868881188 3.9343239859
O 8.262096106943 2.67475283386 3.4448875937
O 6.817110242227 3.30554811939 0.9470988457
O 8.24277195472 0.33818990378 3.4533715272
O 6.806598144843 5.65275124517 1.0126056955
O 1.79738758293 3.33668722319 1.5020420877
O 3.242373447647 2.70589193766 3.9998308357
CELL_PARAMETERS {angstrom}
10.059423333333 0 0
0 6.01141 0
0 0 4.9469
!End