&CONTROL
calculation = "scf"
etot_conv_thr = 1.0d-5
forc_conv_thr = 1.0d-4
pseudo_dir = '/opt/QEpot/SSSP_precision_pseudos/'
disk_io = 'none'
tprnfor = .true.
tstress = .true.
verbosity = 'high'
/
!controlend

&SYSTEM
ntyp = 4
occupations = 'smearing'
smearing = 'cold'
degauss =   7.3498618000d-03
ecutrho = 1.080d+03
ecutwfc = 1.000d+02
ibrav = 0
nat = 25
nosym = .false.
starting_magnetization(1) =   3.1250000000d-01
starting_magnetization(2) =   0.0000000000d+00
starting_magnetization(3) =   0.0000000000d+00
starting_magnetization(4) =   0.0000000000d+00
nspin = 2
!systemend
/

&ELECTRONS
conv_thr =   2.0000000000d-10
electron_maxstep = 1000
mixing_beta =   4.0000000000d-01
/
K_POINTS {automatic}
5 7 9 0 0 0
ATOMIC_SPECIES
Fe  55.845  Fe.pbe-spn-kjpaw_psl.0.2.1.UPF
Na  22.98977  Na_ONCV_PBE-1.0.oncvpsp.upf
O  15.9994  O.pbe-n-kjpaw_psl.0.1.UPF
P  30.973761  P.pbe-n-rrkjus_psl.1.0.0.UPF
ATOMIC_POSITIONS {angstrom}
Na 5.463340279845 0 2.597138082735
Fe 3.02267321391 4.86763394418 5.171083861545
Fe 2.330046015675 1.655530187535 2.545455344985
Fe 7.903996419165 1.662033703995 0.023192303925
Fe 8.596634544015 4.87413746064 2.648820820485
P 1.184499699075 4.90477450806 2.31193767252
P 4.282129491885 1.658899479195 4.91029640283
P 9.742169934 1.624893140115 2.88233849295
P 6.644551067805 4.87076816898 0.283974568395
O 1.440969206355 4.90831357023 3.9088771323
O 4.05539130402 1.60716518109 1.321213352445
O 9.485711353335 1.621354077945 1.28539903317
O 6.87128925567 4.922502467085 3.87306800727
O 5.048391148605 4.929959310255 0.637733818365
O 0.407726638725 1.62206580816 3.19887578325
O 5.87827848447 1.59970833792 4.556542347105
O 10.518953920965 4.907601840015 1.99540038222
O 1.97332481577 6.162323442345 1.56823606191
O 3.533306712705 0.38961026118 4.131040185195
O 8.974345771335 2.90533497471 3.617131973385
O 7.40479215966 3.590509164165 0.994453787985
O 8.95335574392 0.36734420583 3.62604010356
O 7.393373846985 6.140057386995 1.063235980275
O 1.952334788355 3.624332673465 1.577144192085
O 3.52188840003 2.93915848401 4.199822377485
CELL_PARAMETERS {angstrom}
10.926615 0 0
0 6.529635 0
0 0 5.194245
!End