&CONTROL
calculation = "scf"
etot_conv_thr = 1.0d-5
forc_conv_thr = 1.0d-4
pseudo_dir = '/opt/QEpot/SSSP_precision_pseudos/'
disk_io = 'none'
tprnfor = .true.
tstress = .true.
verbosity = 'high'
/
!controlend

&SYSTEM
ntyp = 4
occupations = 'smearing'
smearing = 'cold'
degauss =   7.3498618000d-03
ecutrho = 1.080d+03
ecutwfc = 1.000d+02
ibrav = 0
nat = 25
nosym = .false.
starting_magnetization(1) =   3.1250000000d-01
starting_magnetization(2) =   0.0000000000d+00
starting_magnetization(3) =   0.0000000000d+00
starting_magnetization(4) =   0.0000000000d+00 
nspin = 2
!systemend
/

&ELECTRONS
conv_thr =   2.0000000000d-10
electron_maxstep = 1000
mixing_beta =   4.0000000000d-01
/
K_POINTS {automatic}
5 7 9 0 0 0
ATOMIC_SPECIES
Fe  55.845  Fe.pbe-spn-kjpaw_psl.0.2.1.UPF
Na  22.98977  Na_ONCV_PBE-1.0.oncvpsp.upf
O  15.9994  O.pbe-n-kjpaw_psl.0.1.UPF
P  30.973761  P.pbe-n-rrkjus_psl.1.0.0.UPF
ATOMIC_POSITIONS {angstrom}
Na 4.943022157955 5.907765 2.4734648407
Fe 2.73479957449 4.40404975902 4.9248417729
Fe 2.108136871325 1.497860645865 2.4242431857
Fe 7.151234855435 1.503744779805 0.0220879085
Fe 7.777907444585 4.40993389296 2.5226864957
P 1.071690203925 4.43765312634 2.2018454024
P 3.874307635515 1.500909052605 4.6764727646
P 8.814344226 1.470141412485 2.745084279
P 6.011736680395 4.40688548622 0.2704519699
O 1.303734043845 4.44085513497 3.722740126
O 3.66916356078 1.45410183051 1.2582984309
O 8.582310272065 1.466939403855 1.2241895554
O 6.21688075513 4.453692708315 3.6886361974
O 4.567591991595 4.460439375945 0.6073655413
O 0.368895530275 1.46758335024 3.046548365
O 5.31844243833 1.44735516288 4.3395641401
O 9.517148785635 4.440211188585 1.9003813164
O 1.78538911903 5.575435495455 1.4935581542
O 3.196801311495 0.35250452202 3.9343239859
O 8.119646174065 2.62863640569 3.4448875937
O 6.69957385874 3.248555910435 0.9470988457
O 8.10065519688 0.33235904337 3.4533715272
O 6.689243004415 5.555290016805 1.0126056955
O 1.766398141845 3.279158133135 1.5020420877
O 3.18647045717 2.65923862839 3.9998308357
CELL_PARAMETERS {angstrom}
9.885985 0 0
0 5.907765 0
0 0 4.9469
!End