&CONTROL
calculation = "scf"
etot_conv_thr = 1.0d-5
forc_conv_thr = 1.0d-4
pseudo_dir = '/opt/QEpot/SSSP_precision_pseudos/'
disk_io = 'none'
tprnfor = .true.
tstress = .true.
verbosity = 'high'
/
!controlend

&SYSTEM
ntyp = 4
occupations = 'smearing'
smearing = 'cold'
degauss =   7.3498618000d-03
ecutrho = 1.080d+03
ecutwfc = 1.000d+02
ibrav = 0
nat = 25
nosym = .false.
starting_magnetization(1) =   3.1250000000d-01
starting_magnetization(2) =   0.0000000000d+00
starting_magnetization(3) =   0.0000000000d+00
starting_magnetization(4) =   0.0000000000d+00 
nspin = 2
!systemend
/

&ELECTRONS
conv_thr =   2.0000000000d-10
electron_maxstep = 1000
mixing_beta =   4.0000000000d-01
/
K_POINTS {automatic}
5 7 9 0 0 0
ATOMIC_SPECIES
Fe  55.845  Fe.pbe-spn-kjpaw_psl.0.2.1.UPF
Na  22.98977  Na_ONCV_PBE-1.0.oncvpsp.upf
O  15.9994  O.pbe-n-kjpaw_psl.0.1.UPF
P  30.973761  P.pbe-n-rrkjus_psl.1.0.0.UPF
ATOMIC_POSITIONS {angstrom}
Na 4.943022157955 5.907765 2.349791598665
Fe 2.73479957449 4.40404975902 4.678599684255
Fe 2.108136871325 1.497860645865 2.303031026415
Fe 7.151234855435 1.503744779805 0.020983513075
Fe 7.777907444585 4.40993389296 2.396552170915
P 1.071690203925 4.43765312634 2.09175313228
P 3.874307635515 1.500909052605 4.44264912637
P 8.814344226 1.470141412485 2.60783006505
P 6.011736680395 4.40688548622 0.256929371405
O 1.303734043845 4.44085513497 3.5366031197
O 3.66916356078 1.45410183051 1.195383509355
O 8.582310272065 1.466939403855 1.16298007763
O 6.21688075513 4.453692708315 3.50420438753
O 4.567591991595 4.460439375945 0.576997264235
O 0.368895530275 1.46758335024 2.89422094675
O 5.31844243833 1.44735516288 4.122585933095
O 9.517148785635 4.440211188585 1.80536225058
O 1.78538911903 5.575435495455 1.41888024649
O 3.196801311495 0.35250452202 3.737607786605
O 8.119646174065 2.62863640569 3.272643214015
O 6.69957385874 3.248555910435 0.899743903415
O 8.10065519688 0.33235904337 3.28070295084
O 6.689243004415 5.555290016805 0.961975410725
O 1.766398141845 3.279158133135 1.426939983315
O 3.18647045717 2.65923862839 3.799839293915
CELL_PARAMETERS {angstrom}
9.885985 0 0
0 5.907765 0
0 0 4.699555
!End