&CONTROL
calculation = "scf"
etot_conv_thr = 1.0d-5
forc_conv_thr = 1.0d-4
pseudo_dir = '/opt/QEpot/SSSP_precision_pseudos/'
disk_io = 'none'
tprnfor = .true.
tstress = .true.
verbosity = 'high'
/
!controlend

&SYSTEM
ntyp = 4
occupations = 'smearing'
smearing = 'cold'
degauss =   7.3498618000d-03
ecutrho = 1.080d+03
ecutwfc = 1.000d+02
ibrav = 0
nat = 25
nosym = .false.
starting_magnetization(1) =   3.1250000000d-01
starting_magnetization(2) =   0.0000000000d+00
starting_magnetization(3) =   0.0000000000d+00
starting_magnetization(4) =   0.0000000000d+00  
nspin = 2
!systemend
/

&ELECTRONS
conv_thr =   2.0000000000d-10
electron_maxstep = 1000
mixing_beta =   4.0000000000d-01
/
K_POINTS {automatic}
5 7 9 0 0 0
ATOMIC_SPECIES
Fe  55.845  Fe.pbe-spn-kjpaw_psl.0.2.1.UPF
Na  22.98977  Na_ONCV_PBE-1.0.oncvpsp.upf
O  15.9994  O.pbe-n-kjpaw_psl.0.1.UPF
P  30.973761  P.pbe-n-rrkjus_psl.1.0.0.UPF
ATOMIC_POSITIONS {angstrom}
Na 5.376620592863 0 2.4734648407
Fe 2.974694274007 4.6358418516 4.9248417729
Fe 2.293061158283 1.5766954167 2.4242431857
Fe 7.778536158543 1.5828892419 0.0220879085
Fe 8.460180027443 4.6420356768 2.5226864957
P 1.16569811655 4.6712138172 2.2018454024
P 4.21415918249 1.5799042659 4.6764727646
P 9.587532316 1.5475172763 2.745084279
P 6.539082003237 4.6388268276 0.2704519699
O 1.41809667927 4.6745843526 3.722740126
O 3.99102001348 1.5306335058 1.2582984309
O 9.335144506457 1.5441467409 1.2241895554
O 6.762221172247 4.6880975877 3.6886361974
O 4.96825795577 4.6951993431 0.6073655413
O 0.401254787317 1.5448245792 3.046548365
O 5.78497247678 1.5235317504 4.3395641401
O 10.35198639841 4.6739065143 1.9003813164
O 1.942002199647 5.8688794689 1.4935581542
O 3.47722247917 0.3710573916 3.9343239859
O 8.831895838457 2.7669856902 3.4448875937
O 7.287255776173 3.4195325373 0.9470988457
O 8.81123898608 0.3498516246 3.4533715272
O 7.276018706557 5.8476737019 1.0126056955
O 1.92134534727 3.4517454033 1.5020420877
O 3.465985409553 2.7991985562 3.9998308357
CELL_PARAMETERS {angstrom}
10.753176666667 0 0
0 6.2187 0
0 0 4.9469
!End