&CONTROL
calculation = "scf"
etot_conv_thr = 1.0d-5
forc_conv_thr = 1.0d-4
pseudo_dir = '/opt/QEpot/SSSP_precision_pseudos/'
disk_io = 'none'
tprnfor = .true.
tstress = .true.
verbosity = 'high'
/
!controlend

&SYSTEM
ntyp = 4
occupations = 'smearing'
smearing = 'cold'
degauss =   7.3498618000d-03
ecutrho = 1.080d+03
ecutwfc = 1.000d+02
ibrav = 0
nat = 25
nosym = .false.
starting_magnetization(1) =   3.1250000000d-01
starting_magnetization(2) =   0.0000000000d+00
starting_magnetization(3) =   0.0000000000d+00
starting_magnetization(4) =   0.0000000000d+00 
nspin = 2
!systemend
/

&ELECTRONS
conv_thr =   2.0000000000d-10
electron_maxstep = 1000
mixing_beta =   4.0000000000d-01
/
K_POINTS {automatic}
5 7 9 0 0 0
ATOMIC_SPECIES
Fe  55.845  Fe.pbe-spn-kjpaw_psl.0.2.1.UPF
Na  22.98977  Na_ONCV_PBE-1.0.oncvpsp.upf
O  15.9994  O.pbe-n-kjpaw_psl.0.1.UPF
P  30.973761  P.pbe-n-rrkjus_psl.1.0.0.UPF
ATOMIC_POSITIONS {angstrom}
Na 5.607716071977 1.50285851141 2.2032404282
Fe 2.787617097017 4.50858755705 4.9043121379
Fe 2.119580852873 1.50284648859 2.4262466802
Fe 7.345531749927 1.5028525 0.0005293183
Fe 7.856600752377 4.50859356846 2.5453235101
P 1.057758422923 4.50857553423 2.1958695472
P 3.894254257917 1.50286452282 4.657753695
P 8.975751835903 1.50286452282 2.7535682125
P 6.07503664235 4.50857553423 0.3270642935
O 1.321013531557 4.50858154564 3.7143749181
O 3.649830389763 1.50285851141 1.234647302
O 8.766264344987 1.50285851141 1.2289534201
O 6.361227236183 4.50858154564 3.760435504
O 4.601783798067 4.50858154564 0.5913573729
O 0.363959995623 1.50285851141 3.1037691573
O 5.390241398933 1.5028525 4.4322987275
O 9.63987496437 4.50858154564 1.9353608463
O 1.751949167733 5.68238148506 1.4819873551
O 3.227193777837 0.3311084628 3.9338095083
O 8.223769704043 2.66217095273 3.4407965074
O 6.76180353274 3.32751381153 1.0541547086
O 8.223769704043 0.34355809291 3.4408014543
O 6.761813592163 5.68963725693 1.0541646024
O 1.751949167733 3.3347695834 1.4819873551
O 3.22720383726 2.67462058284 3.9338194021
CELL_PARAMETERS {angstrom}
10.059423333333 0 0
0 6.01141 0
0 0 4.9469
!End