&CONTROL
calculation = "scf"
etot_conv_thr = 1.0d-5
forc_conv_thr = 1.0d-4
pseudo_dir = '/opt/QEpot/SSSP_precision_pseudos/'
disk_io = 'none'
tprnfor = .true.
tstress = .true.
verbosity = 'high'
/
!controlend

&SYSTEM
ntyp = 4
occupations = 'smearing'
smearing = 'cold'
degauss =   7.3498618000d-03
ecutrho = 1.080d+03
ecutwfc = 1.000d+02
ibrav = 0
nat = 25
nosym = .false.
starting_magnetization(1) =   3.1250000000d-01
starting_magnetization(2) =   0.0000000000d+00
starting_magnetization(3) =   0.0000000000d+00
starting_magnetization(4) =   0.0000000000d+00 
nspin = 2
!systemend
/

&ELECTRONS
conv_thr =   2.0000000000d-10
electron_maxstep = 1000
mixing_beta =   4.0000000000d-01
/
K_POINTS {automatic}
5 7 9 0 0 0
ATOMIC_SPECIES
Fe  55.845  Fe.pbe-spn-kjpaw_psl.0.2.1.UPF
Na  22.98977  Na_ONCV_PBE-1.0.oncvpsp.upf
O  15.9994  O.pbe-n-kjpaw_psl.0.1.UPF
P  30.973761  P.pbe-n-rrkjus_psl.1.0.0.UPF
ATOMIC_POSITIONS {angstrom}
Na 5.511031312115 1.5546812187 2.2032404282
Fe 2.739554733275 4.6640560935 4.9043121379
Fe 2.08303635541 1.5546687813 2.4262466802
Fe 7.21888465079 1.554675 0.0005293183
Fe 7.721142118715 4.6640623122 2.5453235101
P 1.039521208735 4.6640436561 2.1958695472
P 3.827111943125 1.5546874374 4.657753695
P 8.820997493905 1.5546874374 2.7535682125
P 5.970294631275 4.6640436561 0.3270642935
O 1.298237436185 4.6640498748 3.7143749181
O 3.586902279595 1.5546812187 1.234647302
O 8.61512185628 1.5546812187 1.2289534201
O 6.251550904525 4.6640498748 3.760435504
O 4.5224426981 4.6640498748 0.5913573729
O 0.357684823285 1.5546812187 3.1037691573
O 5.2973062024 1.554675 4.4322987275
O 9.473670223605 4.6640498748 1.9353608463
O 1.7217431476 5.8783256742 1.4819873551
O 3.171552505805 0.342525996 3.9338095083
O 8.081980571215 2.7539699511 3.4407965074
O 6.64522071321 3.4422556671 1.0541547086
O 8.081980571215 0.3554049237 3.4408014543
O 6.645230599195 5.8858316451 1.0541646024
O 1.7217431476 3.449761638 1.4819873551
O 3.17156239179 2.7668488788 3.9338194021
CELL_PARAMETERS {angstrom}
9.885985 0 0
0 6.2187 0
0 0 4.9469
!End