&CONTROL
calculation = "scf"
etot_conv_thr = 1.0d-5
forc_conv_thr = 1.0d-4
pseudo_dir = '/opt/QEpot/SSSP_precision_pseudos/'
disk_io = 'none'
tprnfor = .true.
tstress = .true.
verbosity = 'high'
/
!controlend

&SYSTEM
ntyp = 4
occupations = 'smearing'
smearing = 'cold'
degauss =   7.3498618000d-03
ecutrho = 1.080d+03
ecutwfc = 1.000d+02
ibrav = 0
nat = 25
nosym = .false.
starting_magnetization(1) =   3.1250000000d-01
starting_magnetization(2) =   0.0000000000d+00
starting_magnetization(3) =   0.0000000000d+00
starting_magnetization(4) =   0.0000000000d+00
nspin = 2
!systemend
/

&ELECTRONS
conv_thr =   2.0000000000d-10
electron_maxstep = 1000
mixing_beta =   4.0000000000d-01
/
K_POINTS {automatic}
5 7 9 0 0 0
ATOMIC_SPECIES
Fe  55.845  Fe.pbe-spn-kjpaw_psl.0.2.1.UPF
Na  22.98977  Na_ONCV_PBE-1.0.oncvpsp.upf
O  15.9994  O.pbe-n-kjpaw_psl.0.1.UPF
P  30.973761  P.pbe-n-rrkjus_psl.1.0.0.UPF
ATOMIC_POSITIONS {angstrom}
Na 5.994455111423 1.60650392599 2.2032404282
Fe 2.979866551983 4.81952462995 4.9043121379
Fe 2.265758842727 1.60649107401 2.4262466802
Fe 7.852120146473 1.6064975 0.0005293183
Fe 8.398435287023 4.81953105594 2.5453235101
P 1.130707279677 4.81951177797 2.1958695472
P 4.162823517083 1.60651035198 4.657753695
P 9.594769203897 1.60651035198 2.7535682125
P 6.49400468665 4.81951177797 0.3270642935
O 1.412117913043 4.81951820396 3.7143749181
O 3.901542830437 1.60650392599 1.234647302
O 9.370834299813 1.60650392599 1.2289534201
O 6.799932562817 4.81951820396 3.760435504
O 4.919148197933 4.81951820396 0.5913573729
O 0.389060684977 1.60650392599 3.1037691573
O 5.761982185067 1.6064975 4.4322987275
O 10.30469392743 4.81951820396 1.9353608463
O 1.872773248267 6.07426986334 1.4819873551
O 3.449758865963 0.3539435292 3.9338095083
O 8.790926235357 2.84576894947 3.4407965074
O 7.22813481086 3.55699752267 1.0541547086
O 8.790926235357 0.36725175449 3.4408014543
O 7.228145564037 6.08202603327 1.0541646024
O 1.872773248267 3.5647536926 1.4819873551
O 3.44976961914 2.85907717476 3.9338194021
CELL_PARAMETERS {angstrom}
10.753176666667 0 0
0 6.42599 0
0 0 4.9469
!End