&CONTROL
calculation = "scf"
etot_conv_thr = 1.0d-5
forc_conv_thr = 1.0d-4
pseudo_dir = '/opt/QEpot/SSSP_precision_pseudos/'
disk_io = 'none'
tprnfor = .true.
tstress = .true.
verbosity = 'high'
/
!controlend

&SYSTEM
ntyp = 4
occupations = 'smearing'
smearing = 'cold'
degauss =   7.3498618000d-03
ecutrho = 1.080d+03
ecutwfc = 1.000d+02
ibrav = 0
nat = 25
nosym = .false.
starting_magnetization(1) =   3.1250000000d-01
starting_magnetization(2) =   0.0000000000d+00
starting_magnetization(3) =   0.0000000000d+00
starting_magnetization(4) =   0.0000000000d+00
nspin = 2
!systemend
/

&ELECTRONS
conv_thr =   2.0000000000d-10
electron_maxstep = 1000
mixing_beta =   4.0000000000d-01
/
K_POINTS {automatic}
5 7 9 0 0 0
ATOMIC_SPECIES
Fe  55.845  Fe.pbe-spn-kjpaw_psl.0.2.1.UPF
Na  22.98977  Na_ONCV_PBE-1.0.oncvpsp.upf
O  15.9994  O.pbe-n-kjpaw_psl.0.1.UPF
P  30.973761  P.pbe-n-rrkjus_psl.1.0.0.UPF
ATOMIC_POSITIONS {angstrom}
Na 5.897770351562 1.580592572345 2.2032404282
Fe 2.931804188242 4.741790361725 4.9043121379
Fe 2.229214345263 1.580579927655 2.4262466802
Fe 7.725473047337 1.58058625 0.0005293183
Fe 8.262976653362 4.74179668407 2.5453235101
P 1.112470065488 4.741777717035 2.1958695472
P 4.095681202292 1.58059889469 4.657753695
P 9.440014861898 1.58059889469 2.7535682125
P 6.389262675575 4.741777717035 0.3270642935
O 1.389341817672 4.74178403938 3.7143749181
O 3.838614720268 1.580592572345 1.234647302
O 9.219691811107 1.580592572345 1.2289534201
O 6.690256231158 4.74178403938 3.760435504
O 4.839807097967 4.74178403938 0.5913573729
O 0.382785512638 1.580592572345 3.1037691573
O 5.669046988533 1.58058625 4.4322987275
O 10.138489186665 4.74178403938 1.9353608463
O 1.842567228133 5.97629776877 1.4819873551
O 3.394117593932 0.3482347626 3.9338095083
O 8.649137102528 2.799869450285 3.4407965074
O 7.11155199133 3.499626594885 1.0541547086
O 8.649137102528 0.361328339095 3.4408014543
O 7.111562571068 5.983928839185 1.0541646024
O 1.842567228133 3.5072576653 1.4819873551
O 3.39412817367 2.81296302678 3.9338194021
CELL_PARAMETERS {angstrom}
10.579738333333 0 0
0 6.322345 0
0 0 4.9469
!End