&CONTROL
calculation = "scf"
etot_conv_thr = 1.0d-5
forc_conv_thr = 1.0d-4
pseudo_dir = '/opt/QEpot/SSSP_precision_pseudos/'
disk_io = 'none'
tprnfor = .true.
tstress = .true.
verbosity = 'high'
/
!controlend

&SYSTEM
ntyp = 4
occupations = 'smearing'
smearing = 'cold'
degauss =   7.3498618000d-03
ecutrho = 1.080d+03
ecutwfc = 1.000d+02
ibrav = 0
nat = 25
nosym = .false.
starting_magnetization(1) =   3.1250000000d-01
starting_magnetization(2) =   0.0000000000d+00
starting_magnetization(3) =   0.0000000000d+00
starting_magnetization(4) =   0.0000000000d+00 
nspin = 2
!systemend
/

&ELECTRONS
conv_thr =   2.0000000000d-10
electron_maxstep = 1000
mixing_beta =   4.0000000000d-01
/
K_POINTS {automatic}
5 7 9 0 0 0
ATOMIC_SPECIES
Fe  55.845  Fe.pbe-spn-kjpaw_psl.0.2.1.UPF
Na  22.98977  Na_ONCV_PBE-1.0.oncvpsp.upf
O  15.9994  O.pbe-n-kjpaw_psl.0.1.UPF
P  30.973761  P.pbe-n-rrkjus_psl.1.0.0.UPF
ATOMIC_POSITIONS {angstrom}
Na 5.704400831838 1.528769865055 2.166519754397
Fe 2.835679460758 4.586321825275 4.822573602268
Fe 2.156125350337 1.528757634945 2.38580923553
Fe 7.472178849063 1.52876375 0.000520496328
Fe 7.992059386038 4.58632794033 2.502901451598
P 1.075995637112 4.586309595165 2.159271721413
P 3.961396572708 1.52877598011 4.58012446675
P 9.130506177902 1.52877598011 2.707675408958
P 6.179778653425 4.586309595165 0.321613221942
O 1.343789626928 4.58631571022 3.652468669465
O 3.712758499932 1.528769865055 1.214069846967
O 8.917406833693 1.528769865055 1.208470863098
O 6.470903567842 4.58631571022 3.697761578933
O 4.681124898033 4.58631571022 0.581501416685
O 0.370235167962 1.528769865055 3.052039671345
O 5.483176595467 1.52876375 4.358427082042
O 9.806079705135 4.58631571022 1.903104832195
O 1.782155187867 5.78035357963 1.457287565848
O 3.282835049868 0.3368172294 3.868246016495
O 8.365558836872 2.708070451915 3.383449898943
O 6.87838635227 3.384884739315 1.036585463457
O 8.365558836872 0.349481508305 3.383454763395
O 6.878396585132 5.787734451015 1.03659519236
O 1.782155187867 3.3922656107 1.457287565848
O 3.28284528273 2.72073473082 3.868255745398
CELL_PARAMETERS {angstrom}
10.232861666667 0 0
0 6.115055 0
0 0 4.864451666667
!End