&CONTROL
calculation = "scf"
etot_conv_thr = 1.0d-5
forc_conv_thr = 1.0d-4
pseudo_dir = '/opt/QEpot/SSSP_precision_pseudos/'
disk_io = 'none'
tprnfor = .true.
tstress = .true.
verbosity = 'high'
/
!controlend

&SYSTEM
ntyp = 4
occupations = 'smearing'
smearing = 'cold'
degauss =   7.3498618000d-03
ecutrho = 1.080d+03
ecutwfc = 1.000d+02
ibrav = 0
nat = 25
nosym = .false.
starting_magnetization(1) =   3.1250000000d-01
starting_magnetization(2) =   0.0000000000d+00
starting_magnetization(3) =   0.0000000000d+00
starting_magnetization(4) =   0.0000000000d+00 
nspin = 2
!systemend
/

&ELECTRONS
conv_thr =   2.0000000000d-10
electron_maxstep = 1000
mixing_beta =   4.0000000000d-01
/
K_POINTS {automatic}
5 7 9 0 0 0
ATOMIC_SPECIES
Fe  55.845  Fe.pbe-spn-kjpaw_psl.0.2.1.UPF
Na  22.98977  Na_ONCV_PBE-1.0.oncvpsp.upf
O  15.9994  O.pbe-n-kjpaw_psl.0.1.UPF
P  30.973761  P.pbe-n-rrkjus_psl.1.0.0.UPF
ATOMIC_POSITIONS {angstrom}
Na 5.511031312115 1.476947157765 2.09307840679
Fe 2.739554733275 4.430853288825 4.659096531005
Fe 2.08303635541 1.476935342235 2.30493434619
Fe 7.21888465079 1.47694125 0.000502852385
Fe 7.721142118715 4.43085919659 2.418057334595
P 1.039521208735 4.430841473295 2.08607606984
P 3.827111943125 1.47695306553 4.42486601025
P 8.820997493905 1.47695306553 2.615889801875
P 5.970294631275 4.430841473295 0.310711078825
O 1.298237436185 4.43084738106 3.528656172195
O 3.586902279595 1.476947157765 1.1729149369
O 8.61512185628 1.476947157765 1.167505749095
O 6.251550904525 4.43084738106 3.5724137288
O 4.5224426981 4.43084738106 0.561789504255
O 0.357684823285 1.476947157765 2.948580699435
O 5.2973062024 1.47694125 4.210683791125
O 9.473670223605 4.43084738106 1.838592803985
O 1.7217431476 5.58440939049 1.407887987345
O 3.171552505805 0.3253996962 3.737119032885
O 8.081980571215 2.616271453545 3.26875668203
O 6.64522071321 3.270142883745 1.00144697317
O 8.081980571215 0.337634677515 3.268761381585
O 6.645230599195 5.591540062845 1.00145637228
O 1.7217431476 3.2772735561 1.407887987345
O 3.17156239179 2.62850643486 3.737128431995
CELL_PARAMETERS {angstrom}
9.885985 0 0
0 5.907765 0
0 0 4.699555
!End