&CONTROL
calculation = "scf"
etot_conv_thr =   1.0000000000d-05
forc_conv_thr =   1.0000000000d-04
prefix = 'aiida'
pseudo_dir = '/opt/QEpot/SSSP_precision_pseudos/'
tprnfor = .true.
tstress = .true.
verbosity = 'high'
disk_io = 'none'
/
&SYSTEM
degauss =   2.2049585400d-02
ecutrho = 4.4000000000d+02
ecutwfc = 8.0000000000d+01
ibrav = 0
nat = 8
nosym = .false.
ntyp = 2
occupations = 'smearing'
smearing = 'cold'
/
&ELECTRONS
conv_thr =   2.0000000000d-10
electron_maxstep = 80
mixing_beta =   4.0000000000d-01
/
K_POINTS {automatic}
7 6 5 0 0 0
ATOMIC_SPECIES
B  10.81  B_pbe_v1.01.uspp.F.UPF
N  14.007  N.oncvpsp.upf
ATOMIC_POSITIONS {angstrom}
B 1.531561706042 2.50483891251 4.178557121048
B 0.157474420989 2.348808733338 2.085729345175
B 2.350851172724 1.138657383113 2.122727479528
B -1.333558503461 1.787998587488 0.029899703655
N 2.470877285706 1.404381033265 0.663448359066
N -0.887310235214 3.206709614506 2.754333785648
N 1.344857951075 1.971379000379 2.836672853747
N -0.045511946026 1.824383143387 0.745787427165
CELL_PARAMETERS {angstrom}
5.07703 0 0
1.100221115733 3.156140795167 0
0.392681142409 1.126461722399 4.181770853163
!End