&CONTROL
calculation = "scf"
etot_conv_thr =   1.0000000000d-05
forc_conv_thr =   1.0000000000d-04
prefix = 'aiida'
pseudo_dir = '/opt/QEpot/SSSP_precision_pseudos/'
tprnfor = .true.
tstress = .true.
verbosity = 'high'
disk_io = 'none'
/
&SYSTEM
degauss =   2.2049585400d-02
ecutrho = 4.4000000000d+02
ecutwfc = 8.0000000000d+01
ibrav = 0
nat = 8
nosym = .false.
ntyp = 2
occupations = 'smearing'
smearing = 'cold'
/
&ELECTRONS
conv_thr =   2.0000000000d-10
electron_maxstep = 80
mixing_beta =   4.0000000000d-01
/
K_POINTS {automatic}
7 6 5 0 0 0
ATOMIC_SPECIES
B  10.81  B_pbe_v1.01.uspp.F.UPF
N  14.007  N.oncvpsp.upf
ATOMIC_POSITIONS {angstrom}
B 1.426362442723 2.479870436484 4.171992044165
B 0.081128166934 2.324664791514 2.083030835425
B 2.229426574842 1.127006838182 2.116162402645
B -1.34577935756 1.763969767194 0.027201193905
N 2.309593395102 1.381930226273 0.656883282184
N -0.924971143948 3.163945730137 2.747768708765
N 1.249749089957 1.949230044624 2.830107776864
N -0.099093644639 1.795410662972 0.739222350283
CELL_PARAMETERS {angstrom}
4.82734 0 0
0.915724704000 3.104400782131 0
0.392681142409 1.126461722399 4.181770853163
!End