&CONTROL
calculation = "scf"
etot_conv_thr =   1.0000000000d-05
forc_conv_thr =   1.0000000000d-04
prefix = 'aiida'
pseudo_dir = '/opt/QEpot/SSSP_precision_pseudos/'
tprnfor = .true.
tstress = .true.
verbosity = 'high'
disk_io = 'none'
/
&SYSTEM
degauss =   2.2049585400d-02
ecutrho = 4.4000000000d+02
ecutwfc = 8.0000000000d+01
ibrav = 0
nat = 8
nosym = .false.
ntyp = 2
occupations = 'smearing'
smearing = 'cold'
/
&ELECTRONS
conv_thr =   2.0000000000d-10
electron_maxstep = 80
mixing_beta =   4.0000000000d-01
/
K_POINTS {automatic}
7 6 5 0 0 0
ATOMIC_SPECIES
B  10.81  B_pbe_v1.01.uspp.F.UPF
N  14.007  N.oncvpsp.upf
ATOMIC_POSITIONS {angstrom}
B 1.063717317422 1.27295596007 0.009564737821
B 0.162426448907 2.227478641575 2.083801758033
B 2.209305094258 1.086507877453 2.135505949465
B -1.243492757559 1.667128981841 0.027972116513
N 2.312475016434 1.309030479361 0.676226829004
N -0.812628695166 3.030106751091 2.767112255585
N 1.273674816067 1.87723585142 2.849451323684
N -0.038398076056 1.702945895791 0.758565897102
CELL_PARAMETERS {angstrom}
4.74411 0 0
1.028075468800 2.949180743024 0
0.392681142409 1.126461722399 4.181770853163
!End