&CONTROL
calculation = "scf"
etot_conv_thr =   1.0000000000d-05
forc_conv_thr =   1.0000000000d-04
prefix = 'aiida'
pseudo_dir = '/opt/QEpot/SSSP_precision_pseudos/'
tprnfor = .true.
tstress = .true.
verbosity = 'high'
disk_io = 'none'
/
&SYSTEM
degauss =   2.2049585400d-02
ecutrho = 4.4000000000d+02
ecutwfc = 8.0000000000d+01
ibrav = 0
nat = 8
nosym = .false.
ntyp = 2
occupations = 'smearing'
smearing = 'cold'
/
&ELECTRONS
conv_thr =   2.0000000000d-10
electron_maxstep = 80
mixing_beta =   4.0000000000d-01
/
K_POINTS {automatic}
7 6 5 0 0 0
ATOMIC_SPECIES
B  10.81  B_pbe_v1.01.uspp.F.UPF
N  14.007  N.oncvpsp.upf
ATOMIC_POSITIONS {angstrom}
B 1.480527751722 2.439146535634 4.177764635036
B 0.150129833881 2.261266714531 2.087765115856
B 2.250030094214 1.112918799523 2.121934993516
B -1.277067802081 1.700801933268 0.031935474336
N 2.357414064091 1.346241663491 0.662655873055
N -0.825960599839 3.087631012599 2.753541299636
N 1.296809080158 1.914145184314 2.835880367735
N -0.034838063209 1.746678753345 0.744994941154
CELL_PARAMETERS {angstrom}
4.82734 0 0
1.046111880533 3.00092075606 0
0.392681142409 1.126461722399 4.181770853163
!End