&CONTROL
calculation = "scf"
etot_conv_thr =   1.0000000000d-05
forc_conv_thr =   1.0000000000d-04
prefix = 'aiida'
pseudo_dir = '/opt/QEpot/SSSP_precision_pseudos/'
tprnfor = .true.
tstress = .true.
verbosity = 'high'
disk_io = 'none'
/
&SYSTEM
degauss =   2.2049585400d-02
ecutrho = 4.4000000000d+02
ecutwfc = 8.0000000000d+01
ibrav = 0
nat = 8
nosym = .false.
ntyp = 2
occupations = 'smearing'
smearing = 'cold'
/
&ELECTRONS
conv_thr =   2.0000000000d-10
electron_maxstep = 80
mixing_beta =   4.0000000000d-01
/
K_POINTS {automatic}
7 6 5 0 0 0
ATOMIC_SPECIES
B  10.81  B_pbe_v1.01.uspp.F.UPF
N  14.007  N.oncvpsp.upf
ATOMIC_POSITIONS {angstrom}
B 1.083558785344 1.298721968692 0.001412743009
B 0.1494253613 2.244723381126 2.023238699527
B 2.239087856337 1.079866821986 2.056489247598
B -1.271337317155 1.702718190949 0.035936712725
N 2.351039519441 1.326292763807 0.645852764485
N -0.838879830196 3.048907750875 2.667042010181
N 1.283632120078 1.874682588213 2.746636442676
N -0.041470337583 1.725990519283 0.725447196981
CELL_PARAMETERS {angstrom}
4.82734 0 0
1.046111880533 3.00092075606 0
0.379591770995 1.088912998319 4.042378491391
!End