&CONTROL
calculation = "scf"
etot_conv_thr =   1.0000000000d-05
forc_conv_thr =   1.0000000000d-04
prefix = 'aiida'
pseudo_dir = '/opt/QEpot/SSSP_precision_pseudos/'
tprnfor = .true.
tstress = .true.
verbosity = 'high'
disk_io = 'none'
/
&SYSTEM
degauss =   2.2049585400d-02
ecutrho = 4.4000000000d+02
ecutwfc = 8.0000000000d+01
ibrav = 0
nat = 8
nosym = .false.
ntyp = 2
occupations = 'smearing'
smearing = 'cold'
/
&ELECTRONS
conv_thr =   2.0000000000d-10
electron_maxstep = 80
mixing_beta =   4.0000000000d-01
/
K_POINTS {automatic}
7 6 5 0 0 0
ATOMIC_SPECIES
B  10.81  B_pbe_v1.01.uspp.F.UPF
N  14.007  N.oncvpsp.upf
ATOMIC_POSITIONS {angstrom}
B 1.180586865011 1.411992983805 0.000694588317
B 0.152082999351 2.410989103216 2.080140330667
B 2.425748890229 1.145637314616 2.12663579996
B -1.381506784092 1.849948714308 0.024310689147
N 2.554203098614 1.43296148889 0.667356679499
N -0.920526326966 3.275916224886 2.75824210608
N 1.384574196851 1.999355753532 2.840581174179
N -0.044944202738 1.866006945858 0.749695747597
CELL_PARAMETERS {angstrom}
5.24349 0 0
1.136293939200 3.259620821238 0
0.392681142409 1.126461722399 4.181770853163
!End