&CONTROL
calculation = "scf"
etot_conv_thr = 1.0d-5
forc_conv_thr = 1.0d-4
pseudo_dir = '/opt/QEpot/SSSP_precision_pseudos/'
disk_io = 'none'
tprnfor = .true.
tstress = .true.
verbosity = 'high'
/
!controlend

&SYSTEM
ntyp = 4
occupations = 'smearing'
smearing = 'cold'
degauss =   7.3498618000d-03
ecutrho =   1.080d+03
ecutwfc =   1.000d+02
ibrav = 0
nat = 25
nosym = .false.
starting_magnetization(1) =   3.1250000000d-01
starting_magnetization(2) =   0.0000000000d+00
starting_magnetization(3) =   0.0000000000d+00
starting_magnetization(4) =   0.0000000000d+00
nspin = 2
!systemend
/

&ELECTRONS
conv_thr =   2.0000000000d-10
electron_maxstep = 1000
mixing_beta =   4.0000000000d-01
/
K_POINTS {automatic}
5 7 9 0 0 0
ATOMIC_SPECIES
Fe  55.845  Fe.pbe-spn-kjpaw_psl.0.2.1.UPF
Na  22.98977  Na_ONCV_PBE-1.0.oncvpsp.upf
O  15.9994  O.pbe-n-kjpaw_psl.0.1.UPF
P  30.973761  P.pbe-n-rrkjus_psl.1.0.0.UPF
ATOMIC_POSITIONS {angstrom}
Na 5.6465356003 2.2149152439 2.3076137527
Fe 2.887687386 4.6520950146 4.9083795321
Fe 2.1879987143 1.5348167838 2.426850242
Fe 7.5767771865 1.4878308636 0.0200511132
Fe 8.1437611037 4.6751131313 2.5325747883
P 1.1025223101 4.648338065 2.1968083911
P 4.0360705618 1.5122695852 4.6666299241
P 9.2777964658 1.5499773482 2.755818324
P 6.3009966423 4.6599025427 0.2964442637
O 1.3714227498 4.636724862 3.7155030949
O 3.7817256599 1.5428609921 1.2411578964
O 9.063663784 1.5437638212 1.2307266635
O 6.5586357399 4.6269225349 3.7217143973
O 4.7822030136 4.627418111 0.6001967376
O 0.3737771284 1.5584466468 3.0979245094
O 5.581164406 1.5218980953 4.4339909209
O 9.9828424237 4.647819412 1.9295724321
O 1.8173268766 5.8683166598 1.4901087508
O 3.3313715042 0.3024473988 3.9607308368
O 8.4913480127 2.7385640932 3.4418379317
O 7.0336205098 3.4501521914 1.020478874
O 8.523475139 0.3356631378 3.4461617389
O 7.0275736628 5.8765361078 1.0043185003
O 1.8273292796 3.4412784748 1.4772956905
O 3.3718741393 2.7287840332 3.9137356935
CELL_PARAMETERS {angstrom}
10.4063 0 0
0 6.2187 0
0 0 4.9469
!End