&CONTROL
calculation = "scf"
etot_conv_thr = 1.0d-5
forc_conv_thr = 1.0d-4
pseudo_dir = '/opt/QEpot/SSSP_precision_pseudos/'
disk_io = 'none'
tprnfor = .true.
tstress = .true.
verbosity = 'high'
/
!controlend

&SYSTEM
ntyp = 4
occupations = 'smearing'
smearing = 'cold'
degauss =   7.3498618000d-03
ecutrho = 1.080d+03
ecutwfc = 1.000d+02
ibrav = 0
nat = 25
nosym = .false.
starting_magnetization(1) =   3.1250000000d-01
starting_magnetization(2) =   0.0000000000d+00
starting_magnetization(3) =   0.0000000000d+00
starting_magnetization(4) =   0.0000000000d+00  
nspin = 2
!systemend
/

&ELECTRONS
conv_thr =   2.0000000000d-10
electron_maxstep = 1000
mixing_beta =   4.0000000000d-01
/
K_POINTS {automatic}
5 7 9 0 0 0
ATOMIC_SPECIES
Fe  55.845  Fe.pbe-spn-kjpaw_psl.0.2.1.UPF
Na  22.98977  Na_ONCV_PBE-1.0.oncvpsp.upf
O  15.9994  O.pbe-n-kjpaw_psl.0.1.UPF
P  30.973761  P.pbe-n-rrkjus_psl.1.0.0.UPF
ATOMIC_POSITIONS {angstrom}
Na 5.45831351663 2.1410838997 2.230694568923
Fe 2.79142961846 4.49702761562 4.744765873377
Fe 2.115064171797 1.48365806787 2.345955195267
Fe 7.324215831883 1.43823585391 0.01938145951
Fe 7.8723035122 4.51927584403 2.448156170507
P 1.06577578332 4.49339071257 2.12358247626
P 3.90153728041 1.46186069521 4.51107415248
P 8.968539229373 1.49831388545 2.663958416933
P 6.090960709487 4.50457193517 0.28656154975
O 1.325711282253 4.4821674101 3.59165271759
O 3.655664855297 1.491430821 1.19978550832
O 8.761546475443 1.49230247545 1.18970026329
O 6.340011912373 4.47269342794 3.597658913777
O 4.62279793341 4.47316832933 0.580190900427
O 0.361314367287 1.50650142587 2.994662639453
O 5.395130278673 1.47116635789 4.286190881723
O 9.650085279053 4.49289176554 1.86525387419
O 1.756747512663 5.67270311496 1.44043982607
O 3.2203231917 0.29236492535 3.82870618683
O 8.208298310957 2.64728069016 3.32711229319
O 6.799164231 3.33514830223 0.986465121623
O 8.23936181021 0.32447186616 3.331291764103
O 6.793319706043 5.68065019898 0.970842316733
O 1.766414618487 3.32657002016 1.428054437437
O 3.259474467313 2.63782474223 3.783277155163
CELL_PARAMETERS {angstrom}
10.059423333333 0 0
0 6.01141 0
0 0 4.782003333333
!End