&CONTROL
calculation = "scf"
etot_conv_thr = 1.0d-5
forc_conv_thr = 1.0d-4
pseudo_dir = '/opt/QEpot/SSSP_precision_pseudos/'
disk_io = 'none'
tprnfor = .true.
tstress = .true.
verbosity = 'high'
/
!controlend

&SYSTEM
ntyp = 4
occupations = 'smearing'
smearing = 'cold'
degauss =   7.3498618000d-03
ecutrho = 1.080d+03
ecutwfc = 1.000d+02
ibrav = 0
nat = 25
nosym = .false.
starting_magnetization(1) =   3.1250000000d-01
starting_magnetization(2) =   0.0000000000d+00
starting_magnetization(3) =   0.0000000000d+00
starting_magnetization(4) =   0.0000000000d+00
nspin = 2
!systemend
/

&ELECTRONS
conv_thr =   2.0000000000d-10
electron_maxstep = 1000
mixing_beta =   4.0000000000d-01
/
K_POINTS {automatic}
5 7 9 0 0 0
ATOMIC_SPECIES
Fe  55.845  Fe.pbe-spn-kjpaw_psl.0.2.1.UPF
Na  22.98977  Na_ONCV_PBE-1.0.oncvpsp.upf
O  15.9994  O.pbe-n-kjpaw_psl.0.1.UPF
P  30.973761  P.pbe-n-rrkjus_psl.1.0.0.UPF
ATOMIC_POSITIONS {angstrom}
Na 5.552422370365 2.214914379 2.3076150713
Fe 2.83955771533 4.6520975334 4.9083784897
Fe 2.151530795448 1.5348186909 2.426850202
Fe 7.450495415192 1.4878301937 0.0200497857
Fe 8.0080328831 4.6751129421 2.5325753488
P 1.08415122786 4.6483352199 2.1968094582
P 3.968805164555 1.5122696847 4.6666284336
P 9.123169216087 1.5499798815 2.755819052
P 6.195977273443 4.6599020019 0.2964429825
O 1.348568373327 4.636724907 3.7155028113
O 3.718693559698 1.54285947 1.2411574224
O 8.912607621572 1.5437611815 1.2307244103
O 6.449322462587 4.6269242358 3.7217161177
O 4.702501346055 4.6274155131 0.6001974832
O 0.367543925343 1.5584497509 3.0979268684
O 5.488149766237 1.5218962323 4.4339905673
O 9.816466059727 4.6478190678 1.9295729733
O 1.787036262882 5.8683135672 1.4901101649
O 3.27584600535 0.3024464745 3.9607305381
O 8.349820695628 2.7385662312 3.4418403033
O 6.9163912005 3.4501534161 1.0204811603
O 8.381419772455 0.3356605512 3.4461638939
O 6.910445907872 5.8765346886 1.004319638
O 1.796870042943 3.4412793312 1.4772976939
O 3.315672302957 2.7287842161 3.9137349881
CELL_PARAMETERS {angstrom}
10.232861666667 0 0
0 6.2187 0
0 0 4.9469
!End