&CONTROL
calculation = "scf"
etot_conv_thr = 1.0d-5
forc_conv_thr = 1.0d-4
pseudo_dir = '/opt/QEpot/SSSP_precision_pseudos/'
disk_io = 'none'
tprnfor = .true.
tstress = .true.
verbosity = 'high'
/
!controlend

&SYSTEM
ntyp = 4
occupations = 'smearing'
smearing = 'cold'
degauss =   7.3498618000d-03
ecutrho = 1.080d+03
ecutwfc = 1.000d+02
ibrav = 0
nat = 25
nosym = .false.
starting_magnetization(1) =   3.1250000000d-01
starting_magnetization(2) =   0.0000000000d+00
starting_magnetization(3) =   0.0000000000d+00
starting_magnetization(4) =   0.0000000000d+00 
nspin = 2
!systemend
/

&ELECTRONS
conv_thr =   2.0000000000d-10
electron_maxstep = 1000
mixing_beta =   4.0000000000d-01
/
K_POINTS {automatic}
5 7 9 0 0 0
ATOMIC_SPECIES
Fe  55.845  Fe.pbe-spn-kjpaw_psl.0.2.1.UPF
Na  22.98977  Na_ONCV_PBE-1.0.oncvpsp.upf
O  15.9994  O.pbe-n-kjpaw_psl.0.1.UPF
P  30.973761  P.pbe-n-rrkjus_psl.1.0.0.UPF
ATOMIC_POSITIONS {angstrom}
Na 5.364204662895 2.10416866005 2.192234317735
Fe 2.74330152159 4.41949265673 4.662959565215
Fe 2.078597548145 1.458077756355 2.3055076919
Fe 7.197936248575 1.413438684015 0.019047296415
Fe 7.7365741413 4.441357294995 2.40594658136
P 1.04740033878 4.415918458905 2.08696898529
P 3.834269396265 1.436656200465 4.43329701192
P 8.81390924266 1.472480887425 2.6180280994
P 5.98594414553 4.426906901805 0.281620833375
O 1.30285419118 4.40488866165 3.529727670735
O 3.592636150895 1.4657164965 1.17909955128
O 8.610485329315 1.466573122425 1.169188189785
O 6.23070136216 4.39557802401 3.535630311815
O 4.543094520765 4.396044737445 0.57018760904
O 0.35508480923 1.480527263355 2.94303052498
O 5.30211079111 1.445801420685 4.212291038935
O 9.48370449838 4.41542811441 1.833094324635
O 1.726458762445 5.57489788884 1.415604656655
O 3.16480037805 0.287324150775 3.762694011195
O 8.066775926285 2.60163791964 3.269748288135
O 6.6819372615 3.277645745295 0.969457102285
O 8.097303847965 0.31887752364 3.273855699205
O 6.676193504215 5.58270795417 0.9541036561
O 1.73595919403 3.26921536464 1.403432809205
O 3.20327663167 2.592345005295 3.718048238695
CELL_PARAMETERS {angstrom}
9.885985 0 0
0 5.907765 0
0 0 4.699555
!End