&CONTROL
calculation = "scf"
etot_conv_thr = 1.0d-5
forc_conv_thr = 1.0d-4
pseudo_dir = '/opt/QEpot/SSSP_precision_pseudos/'
disk_io = 'none'
tprnfor = .true.
tstress = .true.
verbosity = 'high'
/
!controlend

&SYSTEM
ntyp = 4
occupations = 'smearing'
smearing = 'cold'
degauss =   7.3498618000d-03
ecutrho = 1.080d+03
ecutwfc = 1.000d+02
ibrav = 0
nat = 25
nosym = .false.
starting_magnetization(1) =   3.1250000000d-01
starting_magnetization(2) =   0.0000000000d+00
starting_magnetization(3) =   0.0000000000d+00
starting_magnetization(4) =   0.0000000000d+00 
nspin = 2
!systemend
/

&ELECTRONS
conv_thr =   2.0000000000d-10
electron_maxstep = 1000
mixing_beta =   4.0000000000d-01
/
K_POINTS {automatic}
5 7 9 0 0 0
ATOMIC_SPECIES
Fe  55.845  Fe.pbe-spn-kjpaw_psl.0.2.1.UPF
Na  22.98977  Na_ONCV_PBE-1.0.oncvpsp.upf
O  15.9994  O.pbe-n-kjpaw_psl.0.1.UPF
P  30.973761  P.pbe-n-rrkjus_psl.1.0.0.UPF
ATOMIC_POSITIONS {angstrom}
Na 5.740640077835 2.214914379 2.3076150713
Fe 2.93581390907 4.6520975334 4.9083784897
Fe 2.224464042752 1.5348186909 2.426850202
Fe 7.703054581808 1.4878301937 0.0200497857
Fe 8.2794916249 4.6751129421 2.5325753488
P 1.12090211694 4.6483352199 2.1968094582
P 4.103340932845 1.5122696847 4.6666284336
P 9.432429189513 1.5499798815 2.755819052
P 6.406010401357 4.6599020019 0.2964429825
O 1.394282555473 4.636724907 3.7155028113
O 3.844750968502 1.54285947 1.2411574224
O 9.214729913828 1.5437611815 1.2307244103
O 6.667943563013 4.6269242358 3.7217161177
O 4.861908171345 4.6274155131 0.6001974832
O 0.380003041457 1.5584497509 3.0979268684
O 5.674188741363 1.5218962323 4.4339905673
O 10.149227621073 4.6478190678 1.9295729733
O 1.847613763318 5.8683135672 1.4901101649
O 3.38689163265 0.3024464745 3.9607305381
O 8.632865464972 2.7385662312 3.4418403033
O 7.1508451395 3.4501534161 1.0204811603
O 8.665535696945 0.3356605512 3.4461638939
O 7.144698311528 5.8765346886 1.004319638
O 1.857780891857 3.4412793312 1.4772976939
O 3.428067974243 2.7287842161 3.9137349881
CELL_PARAMETERS {angstrom}
10.579738333333 0 0
0 6.2187 0
0 0 4.9469
!End