&CONTROL
calculation = "scf"
etot_conv_thr = 1.0d-5
forc_conv_thr = 1.0d-4
pseudo_dir = '/opt/QEpot/SSSP_precision_pseudos/'
disk_io = 'none'
tprnfor = .true.
tstress = .true.
verbosity = 'high'
/
!controlend

&SYSTEM
ntyp = 4
occupations = 'smearing'
smearing = 'cold'
degauss =   7.3498618000d-03
ecutrho = 1.080d+03
ecutwfc = 1.000d+02
ibrav = 0
nat = 25
nosym = .false.
starting_magnetization(1) =   3.1250000000d-01
starting_magnetization(2) =   0.0000000000d+00
starting_magnetization(3) =   0.0000000000d+00
starting_magnetization(4) =   0.0000000000d+00
nspin = 2
!systemend
/

&ELECTRONS
conv_thr =   2.0000000000d-10
electron_maxstep = 1000
mixing_beta =   4.0000000000d-01
/
K_POINTS {automatic}
5 7 9 0 0 0
ATOMIC_SPECIES
Fe  55.845  Fe.pbe-spn-kjpaw_psl.0.2.1.UPF
Na  22.98977  Na_ONCV_PBE-1.0.oncvpsp.upf
O  15.9994  O.pbe-n-kjpaw_psl.0.1.UPF
P  30.973761  P.pbe-n-rrkjus_psl.1.0.0.UPF
ATOMIC_POSITIONS {angstrom}
Na 5.83474893157 2.2887448583 2.384535573677
Fe 2.98394200594 4.80716745118 5.071991106023
Fe 2.260930666403 1.58597931393 2.507745208733
Fe 7.829334165117 1.53742453349 0.02071811189
Fe 8.4152209958 4.83095004017 2.616994527093
P 1.13927756148 4.80327972723 2.27003644014
P 4.17060881699 1.56267867419 4.82218271472
P 9.587059176227 1.60164587755 2.847679687067
P 6.511026965313 4.81523206863 0.30632441525
O 1.417139646547 4.7912824039 3.83935290501
O 3.907779672903 1.594288119 1.28252933648
O 9.365791059957 1.59521988755 1.27174855731
O 6.777254113227 4.78115504366 3.845773321623
O 4.94161158399 4.78166269687 0.620204065973
O 0.386232599513 1.61039807593 3.201191097347
O 5.767208228927 1.57262610671 4.581790252877
O 10.315608401747 4.80274637006 1.99389207241
O 1.877902513537 6.06392401944 1.53978050373
O 3.4424144463 0.31252802365 4.09275488937
O 8.774387849643 2.82985177224 3.55656831341
O 7.268072109 3.56515852997 1.054497198977
O 8.80759365919 0.34684923624 3.561036023697
O 7.261824513357 6.07241917822 1.037796959267
O 1.888236316313 3.55598864224 1.526540950363
O 3.484265809887 2.81974368997 4.044192821037
CELL_PARAMETERS {angstrom}
10.753176666667 0 0
0 6.42599 0
0 0 5.111796666667
!End