&CONTROL
calculation = "scf"
etot_conv_thr = 1.0d-5
forc_conv_thr = 1.0d-4
pseudo_dir = '/opt/QEpot/SSSP_precision_pseudos/'
disk_io = 'none'
tprnfor = .true.
tstress = .true.
verbosity = 'high'
/
!controlend

&SYSTEM
ntyp = 4
occupations = 'smearing'
smearing = 'cold'
degauss =   7.3498618000d-03
ecutrho =   1.080d+03
ecutwfc =   1.000d+02
ibrav = 0
nat = 28
nosym = .false.
starting_magnetization(1) =   3.1250000000d-01
starting_magnetization(2) =   0.0000000000d+00
starting_magnetization(3) =   0.0000000000d+00
starting_magnetization(4) =   0.0000000000d+00
nspin = 2
!systemend
/

&ELECTRONS
conv_thr =   2.0000000000d-10
electron_maxstep = 1000
mixing_beta =   4.0000000000d-01
/
K_POINTS {automatic}
5 7 9 0 0 0
ATOMIC_SPECIES
Fe  55.845  Fe.pbe-spn-kjpaw_psl.0.2.1.UPF
Na  22.98977  Na_ONCV_PBE-1.0.oncvpsp.upf
O  15.9994  O.pbe-n-kjpaw_psl.0.1.UPF
P  30.973761  P.pbe-n-rrkjus_psl.1.0.0.UPF
ATOMIC_POSITIONS {angstrom}
Na            0.0000265391        0.0000130739        0.0000137388
Na            5.2031772917        0.0000143146        2.4734643713
Na            0.0000284890        3.1093644259        0.0000140511
Na            5.2031792122        3.1093631234        2.4734640905
Fe            2.9849596509        4.6640196563        4.8567706215
Fe            2.2182476737        1.5547091881        2.3833210269
Fe            7.4213960477        1.5547090944        0.0901566277
Fe            8.1881078007        4.6640197268        2.5636067371
P             1.1267154480        4.6640487554        2.1870234266
P             4.0764892704        1.5546799144        4.6604772551
P             9.2796399808        1.5546799780        2.7599057566
P             6.3298672779        4.6640486765        0.2864493968
O             1.1677202129        4.6640370320        3.7273399472
O             4.0354843789        1.5546915714        1.2538886384
O             9.2386351972        1.5546915810        1.2195867319
O             6.3708714509        4.6640370275        3.6930404444
O             4.8616316855        4.6640378633        0.8064549069
O             0.3415737943        1.5546899566        3.2799046924
O             5.5447240830        1.5546899073        4.1404739113
O            10.0647811562        4.6640378996        1.6670229968
O             1.8629097462        5.8992070664        1.5444694763
O             3.3402955457        0.3195210300        4.0179195708
O             8.5434342124        2.7898315507        3.4024679815
O             7.0660721453        3.4288961093        0.9290182342
O             8.5434447954        0.3195222460        3.4024578920
O             7.0660607676        5.8992076855        0.9290083986
O             1.8629212337        3.4288969308        1.5444596274
O             3.3402849126        2.7898326148        4.0179094498
CELL_PARAMETERS {angstrom}
     10.4063000000       0.0000000000       0.0000000000
      0.0000000000       6.2187000000       0.0000000000
      0.0000000000       0.0000000000       4.9469000000
!End