&CONTROL
calculation = "scf"
etot_conv_thr = 1.0d-5
forc_conv_thr = 1.0d-4
pseudo_dir = '/opt/QEpot/SSSP_precision_pseudos/'
disk_io = 'none'
tprnfor = .true.
tstress = .true.
verbosity = 'high'
/
!controlend

&SYSTEM
ntyp = 4
occupations = 'smearing'
smearing = 'cold'
degauss =   7.3498618000d-03
ecutrho = 1.080d+03
ecutwfc = 1.000d+02
ibrav = 0
nat = 28
nosym = .false.
starting_magnetization(1) =   3.1250000000d-01
starting_magnetization(2) =   0.0000000000d+00
starting_magnetization(3) =   0.0000000000d+00
starting_magnetization(4) =   0.0000000000d+00  
nspin = 2
!systemend
/

&ELECTRONS
conv_thr =   2.0000000000d-10
electron_maxstep = 1000
mixing_beta =   4.0000000000d-01
/
K_POINTS {automatic}
5 7 9 0 0 0
ATOMIC_SPECIES
Fe  55.845  Fe.pbe-spn-kjpaw_psl.0.2.1.UPF
Na  22.98977  Na_ONCV_PBE-1.0.oncvpsp.upf
O  15.9994  O.pbe-n-kjpaw_psl.0.1.UPF
P  30.973761  P.pbe-n-rrkjus_psl.1.0.0.UPF  
ATOMIC_POSITIONS {angstrom}
Na 3.0698585e-05 1.223011e-05 1.4593355e-05
Na 5.116461531918 1.223011e-05 2.432240426688
Na 3.0698585e-05 3.05753973011 1.4593355e-05
Na 5.116461531918 3.05753973011 2.432240426688
Fe 2.93521450619 4.586285134945 4.775826221752
Fe 2.181277724313 1.528794325275 2.343600388418
Fe 7.297708557647 1.528794325275 0.088654631625
Fe 8.051635106662 4.586285134945 2.520880464958
P 1.107932398373 4.58631571022 2.150574081833
P 4.008549599268 1.528769865055 4.582804779618
P 9.124980432602 1.528769865055 2.713906771543
P 6.224373464568 4.58631571022 0.281676073758
O 1.148260106202 4.58630348011 3.665218397283
O 3.96822189144 1.528782095165 1.23299256395
O 9.084662957635 1.528782095165 1.199262456093
O 6.264690939535 4.58630348011 3.631488289427
O 4.780608779157 4.58630348011 0.793012639603
O 0.335883451347 1.52877598011 3.225238472937
O 5.45231428468 1.52877598011 4.071468213773
O 9.89703961249 4.58630348011 1.639237515988
O 1.831856196982 5.80088793432 1.51873045485
O 3.28462580066 0.314197640955 3.950956288183
O 8.401046401132 2.7433359741 3.34576012743
O 6.948307496038 3.371749601175 0.913534294097
O 8.401056633993 0.314197640955 3.345750398527
O 6.948297263177 5.80088793432 0.913524565193
O 1.831876662705 3.371749601175 1.518720725947
O 3.284615567798 2.7433359741 3.95094655928
CELL_PARAMETERS {angstrom}
10.232861666667 0 0
0 6.115055 0
0 0 4.864451666667
!End