&CONTROL
calculation = "scf"
etot_conv_thr = 1.0d-5
forc_conv_thr = 1.0d-4
pseudo_dir = '/opt/QEpot/SSSP_precision_pseudos/'
disk_io = 'none'
tprnfor = .true.
tstress = .true.
verbosity = 'high'
/
!controlend

&SYSTEM
ntyp = 4
occupations = 'smearing'
smearing = 'cold'
degauss =   7.3498618000d-03
ecutrho = 1.080d+03
ecutwfc = 1.000d+02
ibrav = 0
nat = 28
nosym = .false.
starting_magnetization(1) =   3.1250000000d-01
starting_magnetization(2) =   0.0000000000d+00
starting_magnetization(3) =   0.0000000000d+00
starting_magnetization(4) =   0.0000000000d+00 
nspin = 2
!systemend
/

&ELECTRONS
conv_thr =   2.0000000000d-10
electron_maxstep = 1000
mixing_beta =   4.0000000000d-01
/
K_POINTS {automatic}
5 7 9 0 0 0
ATOMIC_SPECIES
Fe  55.845  Fe.pbe-spn-kjpaw_psl.0.2.1.UPF
Na  22.98977  Na_ONCV_PBE-1.0.oncvpsp.upf
O  15.9994  O.pbe-n-kjpaw_psl.0.1.UPF
P  30.973761  P.pbe-n-rrkjus_psl.1.0.0.UPF    
ATOMIC_POSITIONS {angstrom}
Na 3.2779845e-05 1.24374e-05 1.48407e-05
Na 5.463340279845 1.24374e-05 2.4734648407
Na 3.2779845e-05 3.1093624374 1.48407e-05
Na 5.463340279845 3.1093624374 2.4734648407
Fe 3.13421209983 4.6640187813 4.8567724289
Fe 2.32916095986 1.5547060935 2.3833224289
Fe 7.79246845986 1.5547060935 0.0901572525
Fe 8.597508673215 4.6640187813 2.5636072525
P 1.18304645928 4.6640498748 2.18702449
P 4.280315673795 1.5546812187 4.6604794369
P 9.743623173795 1.5546812187 2.7599051914
P 6.646364885895 4.6640498748 0.2864502445
O 1.226108248995 4.6640374374 3.727340743
O 4.23725388408 1.5546936561 1.253890743
O 9.700572310695 1.5546936561 1.2195889384
O 6.689415748995 4.6640374374 3.6930389384
O 5.10471784893 4.6640374374 0.8064535318
O 0.35865521076 1.5546874374 3.2799035318
O 5.82196271076 1.5546874374 4.1404761496
O 10.56802534893 4.6640374374 1.6670212027
O 1.956049837455 5.8992080688 1.544471649
O 3.50731229562 0.3195230247 4.017921649
O 8.970608869005 2.789833194 3.4024679262
O 7.419379190685 3.4288978995 0.9290179262
O 8.97061979562 0.3195230247 3.4024580324
O 7.41936826407 5.8992080688 0.9290080324
O 1.956071690685 3.4288978995 1.5444617552
O 3.507301369005 2.789833194 4.0179117552
CELL_PARAMETERS {angstrom}
10.926615 0 0
0 6.2187 0
0 0 4.9469
!End