&CONTROL
calculation = "scf"
etot_conv_thr = 1.0d-5
forc_conv_thr = 1.0d-4
pseudo_dir = '/opt/QEpot/SSSP_precision_pseudos/'
disk_io = 'none'
tprnfor = .true.
tstress = .true.
verbosity = 'high'
/
!controlend

&SYSTEM
ntyp = 4
occupations = 'smearing'
smearing = 'cold'
degauss =   7.3498618000d-03
ecutrho = 1.080d+03
ecutwfc = 1.000d+02
ibrav = 0
nat = 28
nosym = .false.
starting_magnetization(1) =   3.1250000000d-01
starting_magnetization(2) =   0.0000000000d+00
starting_magnetization(3) =   0.0000000000d+00
starting_magnetization(4) =   0.0000000000d+00   
nspin = 2
!systemend
/

&ELECTRONS
conv_thr =   2.0000000000d-10
electron_maxstep = 1000
mixing_beta =   4.0000000000d-01
/
K_POINTS {automatic}
5 7 9 0 0 0
ATOMIC_SPECIES
Fe  55.845  Fe.pbe-spn-kjpaw_psl.0.2.1.UPF
Na  22.98977  Na_ONCV_PBE-1.0.oncvpsp.upf
O  15.9994  O.pbe-n-kjpaw_psl.0.1.UPF
P  30.973761  P.pbe-n-rrkjus_psl.1.0.0.UPF 
ATOMIC_POSITIONS {angstrom}
Na 3.1739215e-05 1.24374e-05 1.48407e-05
Na 5.289900905882 1.24374e-05 2.4734648407
Na 3.1739215e-05 3.1093624374 1.48407e-05
Na 5.289900905882 3.1093624374 2.4734648407
Fe 3.03471330301 4.6640187813 4.8567724289
Fe 2.255219342087 1.5547060935 2.3833224289
Fe 7.545088508753 1.5547060935 0.0901572525
Fe 8.324571889938 4.6640187813 2.5636072525
P 1.145489428827 4.6640498748 2.18702449
P 4.144432636532 1.5546812187 4.6604794369
P 9.434301803198 1.5546812187 2.7599051914
P 6.435369175232 4.6640498748 0.2864502445
O 1.187184177598 4.6640374374 3.727340743
O 4.10273788776 1.5546936561 1.253890743
O 9.392617634165 1.5546936561 1.2195889384
O 6.477053344265 4.6640374374 3.6930389384
O 4.942663314043 4.6640374374 0.8064535318
O 0.347269331053 1.5546874374 3.2799035318
O 5.63713849772 1.5546874374 4.1404761496
O 10.23253248071 4.6640374374 1.6670212027
O 1.893953017218 5.8992080688 1.544471649
O 3.39596904814 0.3195230247 4.017921649
O 8.685827635068 2.789833194 3.4024679262
O 7.183843343362 3.4288978995 0.9290179262
O 8.685838214807 0.3195230247 3.4024580324
O 7.183832763623 5.8992080688 0.9290080324
O 1.893974176695 3.4288978995 1.5444617552
O 3.395958468402 2.789833194 4.0179117552
CELL_PARAMETERS {angstrom}
10.579738333333 0 0
0 6.2187 0
0 0 4.9469
!End