&CONTROL
calculation = "scf"
etot_conv_thr = 1.0d-5
forc_conv_thr = 1.0d-4
pseudo_dir = '/opt/QEpot/SSSP_precision_pseudos/'
disk_io = 'none'
tprnfor = .true.
tstress = .true.
verbosity = 'high'
/
!controlend

&SYSTEM
ntyp = 4
occupations = 'smearing'
smearing = 'cold'
degauss =   7.3498618000d-03
ecutrho = 1.080d+03
ecutwfc = 1.000d+02
ibrav = 0
nat = 28
nosym = .false.
starting_magnetization(1) =   3.1250000000d-01
starting_magnetization(2) =   0.0000000000d+00
starting_magnetization(3) =   0.0000000000d+00
starting_magnetization(4) =   0.0000000000d+00 
nspin = 2
!systemend
/

&ELECTRONS
conv_thr =   2.0000000000d-10
electron_maxstep = 1000
mixing_beta =   4.0000000000d-01
/
K_POINTS {automatic}
5 7 9 0 0 0
ATOMIC_SPECIES
Fe  55.845  Fe.pbe-spn-kjpaw_psl.0.2.1.UPF
Na  22.98977  Na_ONCV_PBE-1.0.oncvpsp.upf
O  15.9994  O.pbe-n-kjpaw_psl.0.1.UPF
P  30.973761  P.pbe-n-rrkjus_psl.1.0.0.UPF
ATOMIC_POSITIONS {angstrom}
Na 3.225953e-05 1.285198e-05 1.533539e-05
Na 5.376620592863 1.285198e-05 2.555913668723
Na 3.225953e-05 3.21300785198 1.533539e-05
Na 5.376620592863 3.21300785198 2.555913668723
Fe 3.08446270142 4.81948607401 5.018664843197
Fe 2.292190150973 1.60652962995 2.462766509863
Fe 7.668778484307 1.60652962995 0.09316249425
Fe 8.461040281577 4.81948607401 2.649060827583
P 1.164267944053 4.81951820396 2.259925306333
P 4.212374155163 1.60650392599 4.815828751463
P 9.588962488497 1.60650392599 2.851902031113
P 6.540867030563 4.81951820396 0.295998585983
O 1.206646213297 4.81950535198 3.851585434433
O 4.16999588592 1.60651677797 1.2956871011
O 9.54659497243 1.60651677797 1.260241903013
O 6.58323454663 4.81950535198 3.816140236347
O 5.023690581487 4.81950535198 0.833335316193
O 0.352962270907 1.60651035198 3.389233649527
O 5.72955060424 1.60651035198 4.278492021253
O 10.40027891482 4.81950535198 1.722588576123
O 1.925001427337 6.09584833776 1.5959540373
O 3.45164067188 0.33017379219 4.151852370633
O 8.828218252037 2.8828276338 3.51588352374
O 7.301611267023 3.54319449615 0.959985190407
O 8.828229005213 0.33017379219 3.515873300147
O 7.301600513847 6.09584833776 0.959974966813
O 1.92502293369 3.54319449615 1.595943813707
O 3.451629918703 2.8828276338 4.15184214704
CELL_PARAMETERS {angstrom}
10.753176666667 0 0
0 6.42599 0
0 0 5.111796666667
!End