&CONTROL
calculation = "scf"
etot_conv_thr = 1.0d-5
forc_conv_thr = 1.0d-4
pseudo_dir = '/opt/QEpot/SSSP_precision_pseudos/'
disk_io = 'none'
tprnfor = .true.
tstress = .true.
verbosity = 'high'
/
!controlend

&SYSTEM
ntyp = 4
occupations = 'smearing'
smearing = 'cold'
degauss =   7.3498618000d-03
ecutrho = 1.080d+03
ecutwfc = 1.000d+02
ibrav = 0
nat = 28
nosym = .false.
starting_magnetization(1) =   3.1250000000d-01
starting_magnetization(2) =   0.0000000000d+00
starting_magnetization(3) =   0.0000000000d+00
starting_magnetization(4) =   0.0000000000d+00 
nspin = 2
!systemend
/

&ELECTRONS
conv_thr =   2.0000000000d-10
electron_maxstep = 1000
mixing_beta =   4.0000000000d-01
/
K_POINTS {automatic}
5 7 9 0 0 0
ATOMIC_SPECIES
Fe  55.845  Fe.pbe-spn-kjpaw_psl.0.2.1.UPF
Na  22.98977  Na_ONCV_PBE-1.0.oncvpsp.upf
O  15.9994  O.pbe-n-kjpaw_psl.0.1.UPF
P  30.973761  P.pbe-n-rrkjus_psl.1.0.0.UPF  
ATOMIC_POSITIONS {angstrom}
Na 3.2779845e-05 1.305927e-05 1.5582735e-05
Na 5.463340279845 1.305927e-05 2.597138082735
Na 3.2779845e-05 3.26483055927 1.5582735e-05
Na 5.463340279845 3.26483055927 2.597138082735
Fe 3.13421209983 4.897219720365 5.099611050345
Fe 2.32916095986 1.632441398175 2.502488550345
Fe 7.79246845986 1.632441398175 0.094665115125
Fe 8.597508673215 4.897219720365 2.691787615125
P 1.18304645928 4.89725236854 2.2963757145
P 4.280315673795 1.632415279635 4.893503408745
P 9.743623173795 1.632415279635 2.89790045097
P 6.646364885895 4.89725236854 0.300772756725
O 1.226108248995 4.89723930927 3.91370778015
O 4.23725388408 1.632428338905 1.31658528015
O 9.700572310695 1.632428338905 1.28056838532
O 6.689415748995 4.89723930927 3.87769088532
O 5.10471784893 4.89723930927 0.84677620839
O 0.35865521076 1.63242180927 3.44389870839
O 5.82196271076 1.63242180927 4.34749995708
O 10.56802534893 4.89723930927 1.750372262835
O 1.956049837455 6.19416847224 1.62169523145
O 3.50731229562 0.335499175935 4.21881773145
O 8.970608869005 2.9293248537 3.57259132251
O 7.419379190685 3.600342794475 0.97546882251
O 8.97061979562 0.335499175935 3.57258093402
O 7.41936826407 6.19416847224 0.97545843402
O 1.956071690685 3.600342794475 1.62168484296
O 3.507301369005 2.9293248537 4.21880734296
CELL_PARAMETERS {angstrom}
10.926615 0 0
0 6.529635 0
0 0 5.194245
!End