&CONTROL
calculation = "scf"
etot_conv_thr = 1.0d-5
forc_conv_thr = 1.0d-4
pseudo_dir = '/opt/QEpot/SSSP_precision_pseudos/'
disk_io = 'none'
tprnfor = .true.
tstress = .true.
verbosity = 'high'
/
!controlend

&SYSTEM
ntyp = 4
occupations = 'smearing'
smearing = 'cold'
degauss =   7.3498618000d-03
ecutrho = 1.080d+03
ecutwfc = 1.000d+02
ibrav = 0
nat = 28
nosym = .false.
starting_magnetization(1) =   3.1250000000d-01
starting_magnetization(2) =   0.0000000000d+00
starting_magnetization(3) =   0.0000000000d+00
starting_magnetization(4) =   0.0000000000d+00  
nspin = 2
!systemend
/

&ELECTRONS
conv_thr =   2.0000000000d-10
electron_maxstep = 1000
mixing_beta =   4.0000000000d-01
/
K_POINTS {automatic}
5 7 9 0 0 0
ATOMIC_SPECIES
Fe  55.845  Fe.pbe-spn-kjpaw_psl.0.2.1.UPF
Na  22.98977  Na_ONCV_PBE-1.0.oncvpsp.upf
O  15.9994  O.pbe-n-kjpaw_psl.0.1.UPF
P  30.973761  P.pbe-n-rrkjus_psl.1.0.0.UPF 
ATOMIC_POSITIONS {angstrom}
Na 3.225953e-05 1.285198e-05 1.48407e-05
Na 5.376620592863 1.285198e-05 2.4734648407
Na 3.225953e-05 3.21300785198 1.48407e-05
Na 5.376620592863 3.21300785198 2.4734648407
Fe 3.08446270142 4.81948607401 4.8567724289
Fe 2.292190150973 1.60652962995 2.3833224289
Fe 7.668778484307 1.60652962995 0.0901572525
Fe 8.461040281577 4.81948607401 2.5636072525
P 1.164267944053 4.81951820396 2.18702449
P 4.212374155163 1.60650392599 4.6604794369
P 9.588962488497 1.60650392599 2.7599051914
P 6.540867030563 4.81951820396 0.2864502445
O 1.206646213297 4.81950535198 3.727340743
O 4.16999588592 1.60651677797 1.253890743
O 9.54659497243 1.60651677797 1.2195889384
O 6.58323454663 4.81950535198 3.6930389384
O 5.023690581487 4.81950535198 0.8064535318
O 0.352962270907 1.60651035198 3.2799035318
O 5.72955060424 1.60651035198 4.1404761496
O 10.40027891482 4.81950535198 1.6670212027
O 1.925001427337 6.09584833776 1.544471649
O 3.45164067188 0.33017379219 4.017921649
O 8.828218252037 2.8828276338 3.4024679262
O 7.301611267023 3.54319449615 0.9290179262
O 8.828229005213 0.33017379219 3.4024580324
O 7.301600513847 6.09584833776 0.9290080324
O 1.92502293369 3.54319449615 1.5444617552
O 3.451629918703 2.8828276338 4.0179117552
CELL_PARAMETERS {angstrom}
10.753176666667 0 0
0 6.42599 0
0 0 4.9469
!End