&CONTROL
calculation = "scf"
etot_conv_thr = 1.0d-5
forc_conv_thr = 1.0d-4
pseudo_dir = '/opt/QEpot/SSSP_precision_pseudos/'
disk_io = 'none'
tprnfor = .true.
tstress = .true.
verbosity = 'high'
/
!controlend

&SYSTEM
ntyp = 4
occupations = 'smearing'
smearing = 'cold'
degauss =   7.3498618000d-03
ecutrho = 1.080d+03
ecutwfc = 1.000d+02
ibrav = 0
nat = 28
nosym = .false.
starting_magnetization(1) =   3.1250000000d-01
starting_magnetization(2) =   0.0000000000d+00
starting_magnetization(3) =   0.0000000000d+00
starting_magnetization(4) =   0.0000000000d+00 
nspin = 2
!systemend
/

&ELECTRONS
conv_thr =   2.0000000000d-10
electron_maxstep = 1000
mixing_beta =   4.0000000000d-01
/
K_POINTS {automatic}
5 7 9 0 0 0
ATOMIC_SPECIES
Fe  55.845  Fe.pbe-spn-kjpaw_psl.0.2.1.UPF
Na  22.98977  Na_ONCV_PBE-1.0.oncvpsp.upf
O  15.9994  O.pbe-n-kjpaw_psl.0.1.UPF
P  30.973761  P.pbe-n-rrkjus_psl.1.0.0.UPF   
ATOMIC_POSITIONS {angstrom}
Na 3.017827e-05 1.202282e-05 1.434601e-05
Na 5.029741844937 1.202282e-05 2.391016012677
Na 3.017827e-05 3.00571702282 1.434601e-05
Na 5.029741844937 3.00571702282 2.391016012677
Fe 2.88546510778 4.50855148859 4.694880014603
Fe 2.144306915427 1.50288255705 2.303878347937
Fe 7.174018582093 1.50288255705 0.08715201075
Fe 7.915166715023 4.50855148859 2.478153677417
P 1.089153883147 4.50858154564 2.114123673667
P 3.940608080637 1.50285851141 4.505130122337
P 8.970319747303 1.50285851141 2.667908351687
P 6.118875609237 4.50858154564 0.276901903017
O 1.128798070503 4.50856952282 3.603096051567
O 3.90096389328 1.50287053423 1.2120943849
O 8.93068561937 1.50287053423 1.178935973787
O 6.15850973717 4.50856952282 3.569937640453
O 4.699581511713 4.50856952282 0.779571747407
O 0.330190511493 1.50286452282 3.170573414073
O 5.35990217816 1.50286452282 4.002460277947
O 9.72929317838 4.50856952282 1.611453829277
O 1.800807786863 5.70256779984 1.4929892607
O 3.22895417692 0.30887225721 3.883990927367
O 8.258655784163 2.6968387542 3.28905232866
O 6.830539572377 3.31460130285 0.898050661993
O 8.258665843587 0.30887225721 3.289042764653
O 6.830529512953 5.70256779984 0.898041097987
O 1.80082790571 3.31460130285 1.492979696693
O 3.228944117497 2.6968387542 3.88398136336
CELL_PARAMETERS {angstrom}
10.059423333333 0 0
0 6.01141 0
0 0 4.782003333333
!End