&CONTROL
calculation = "scf"
etot_conv_thr = 1.0d-5
forc_conv_thr = 1.0d-4
pseudo_dir = '/opt/QEpot/SSSP_precision_pseudos/'
disk_io = 'none'
tprnfor = .true.
tstress = .true.
verbosity = 'high'
/
!controlend

&SYSTEM
ntyp = 4
occupations = 'smearing'
smearing = 'cold'
degauss =   7.3498618000d-03
ecutrho = 1.080d+03
ecutwfc = 1.000d+02
ibrav = 0
nat = 28
nosym = .false.
starting_magnetization(1) =   3.1250000000d-01
starting_magnetization(2) =   0.0000000000d+00
starting_magnetization(3) =   0.0000000000d+00
starting_magnetization(4) =   0.0000000000d+00  
nspin = 2
!systemend
/

&ELECTRONS
conv_thr =   2.0000000000d-10
electron_maxstep = 1000
mixing_beta =   4.0000000000d-01
/
K_POINTS {automatic}
5 7 9 0 0 0
ATOMIC_SPECIES
Fe  55.845  Fe.pbe-spn-kjpaw_psl.0.2.1.UPF
Na  22.98977  Na_ONCV_PBE-1.0.oncvpsp.upf
O  15.9994  O.pbe-n-kjpaw_psl.0.1.UPF
P  30.973761  P.pbe-n-rrkjus_psl.1.0.0.UPF 
ATOMIC_POSITIONS {angstrom}
Na 3.017827e-05 1.24374e-05 1.48407e-05
Na 5.029741844937 1.24374e-05 2.4734648407
Na 3.017827e-05 3.1093624374 1.48407e-05
Na 5.029741844937 3.1093624374 2.4734648407
Fe 2.88546510778 4.6640187813 4.8567724289
Fe 2.144306915427 1.5547060935 2.3833224289
Fe 7.174018582093 1.5547060935 0.0901572525
Fe 7.915166715023 4.6640187813 2.5636072525
P 1.089153883147 4.6640498748 2.18702449
P 3.940608080637 1.5546812187 4.6604794369
P 8.970319747303 1.5546812187 2.7599051914
P 6.118875609237 4.6640498748 0.2864502445
O 1.128798070503 4.6640374374 3.727340743
O 3.90096389328 1.5546936561 1.253890743
O 8.93068561937 1.5546936561 1.2195889384
O 6.15850973717 4.6640374374 3.6930389384
O 4.699581511713 4.6640374374 0.8064535318
O 0.330190511493 1.5546874374 3.2799035318
O 5.35990217816 1.5546874374 4.1404761496
O 9.72929317838 4.6640374374 1.6670212027
O 1.800807786863 5.8992080688 1.544471649
O 3.22895417692 0.3195230247 4.017921649
O 8.258655784163 2.789833194 3.4024679262
O 6.830539572377 3.4288978995 0.9290179262
O 8.258665843587 0.3195230247 3.4024580324
O 6.830529512953 5.8992080688 0.9290080324
O 1.80082790571 3.4288978995 1.5444617552
O 3.228944117497 2.789833194 4.0179117552
CELL_PARAMETERS {angstrom}
10.059423333333 0 0
0 6.2187 0
0 0 4.9469
!End