&CONTROL
calculation = "scf"
etot_conv_thr = 1.0d-5
forc_conv_thr = 1.0d-4
pseudo_dir = '/opt/QEpot/SSSP_precision_pseudos/'
disk_io = 'none'
tprnfor = .true.
tstress = .true.
verbosity = 'high'
/
!controlend

&SYSTEM
ntyp = 4
occupations = 'smearing'
smearing = 'cold'
degauss =   7.3498618000d-03
ecutrho = 1.080d+03
ecutwfc = 1.000d+02
ibrav = 0
nat = 28
nosym = .false.
starting_magnetization(1) =   3.1250000000d-01
starting_magnetization(2) =   0.0000000000d+00
starting_magnetization(3) =   0.0000000000d+00
starting_magnetization(4) =   0.0000000000d+00 
nspin = 2
!systemend
/

&ELECTRONS
conv_thr =   2.0000000000d-10
electron_maxstep = 1000
mixing_beta =   4.0000000000d-01
/
K_POINTS {automatic}
5 7 9 0 0 0
ATOMIC_SPECIES
Fe  55.845  Fe.pbe-spn-kjpaw_psl.0.2.1.UPF
Na  22.98977  Na_ONCV_PBE-1.0.oncvpsp.upf
O  15.9994  O.pbe-n-kjpaw_psl.0.1.UPF
P  30.973761  P.pbe-n-rrkjus_psl.1.0.0.UPF
ATOMIC_POSITIONS {angstrom}
Na 2.9657955e-05 1.181553e-05 1.48407e-05
Na 4.943022157955 1.181553e-05 2.4734648407
Na 2.9657955e-05 2.95389431553 1.48407e-05
Na 4.943022157955 2.95389431553 2.4734648407
Fe 2.83571570937 4.430817842235 4.8567724289
Fe 2.10733610654 1.476970788825 2.3833224289
Fe 7.05032860654 1.476970788825 0.0901572525
Fe 7.778698323385 4.430817842235 2.5636072525
P 1.07037536792 4.43084738106 2.18702449
P 3.872666562005 1.476947157765 4.6604794369
P 8.815659062005 1.476947157765 2.7599051914
P 6.013377753905 4.43084738106 0.2864502445
O 1.109336034805 4.43083556553 3.727340743
O 3.83370589512 1.476958973295 1.253890743
O 8.776708281105 1.476958973295 1.2195889384
O 6.052328534805 4.43083556553 3.6930389384
O 4.61855424427 4.43083556553 0.8064535318
O 0.32449757164 1.47695306553 3.2799035318
O 5.26749007164 1.47695306553 4.1404761496
O 9.56154674427 4.43083556553 1.6670212027
O 1.769759376745 5.60424766536 1.544471649
O 3.17328255318 0.303546873465 4.017921649
O 8.116265167195 2.6503415343 3.4024679262
O 6.712771648715 3.257453004525 0.9290179262
O 8.11627505318 0.303546873465 3.4024580324
O 6.71276176273 5.60424766536 0.9290080324
O 1.769779148715 3.257453004525 1.5444617552
O 3.173272667195 2.6503415343 4.0179117552
CELL_PARAMETERS {angstrom}
9.885985 0 0
0 5.907765 0
0 0 4.9469
!End