&CONTROL
calculation = "scf"
etot_conv_thr = 1.0d-5
forc_conv_thr = 1.0d-4
pseudo_dir = '/opt/QEpot/SSSP_precision_pseudos/'
disk_io = 'none'
tprnfor = .true.
tstress = .true.
verbosity = 'high'
/
!controlend

&SYSTEM
ntyp = 4
occupations = 'smearing'
smearing = 'cold'
degauss =   7.3498618000d-03
ecutrho =   1.080d+03
ecutwfc =   1.000d+02
ibrav = 0
nat = 25
nosym = .false.
starting_magnetization(1) =   3.1250000000d-01
starting_magnetization(2) =   0.0000000000d+00
starting_magnetization(3) =   0.0000000000d+00
starting_magnetization(4) =   0.0000000000d+00
nspin = 2
!systemend
/

&ELECTRONS
conv_thr =   2.0000000000d-10
electron_maxstep = 1000
mixing_beta =   4.0000000000d-01
/
K_POINTS {automatic}
5 7 9 0 0 0
ATOMIC_SPECIES
Fe  55.845  Fe.pbe-spn-kjpaw_psl.0.2.1.UPF
Na  22.98977  Na_ONCV_PBE-1.0.oncvpsp.upf
O  15.9994  O.pbe-n-kjpaw_psl.0.1.UPF
P  30.973761  P.pbe-n-rrkjus_psl.1.0.0.UPF
ATOMIC_POSITIONS {angstrom}
Na 5.7535938606 1.8904588396 2.236671053
Fe 2.8851966561 4.6566432061 4.905506828
Fe 2.1903312802 1.5443546574 2.4267182596
Fe 7.5915798279 1.5090661531 0.0080841273
Fe 8.1326043945 4.6692070915 2.5408398874
P 1.0968038724 4.6552793184 2.1961263686
P 4.0299955471 1.5316975308 4.6608881626
P 9.28249866 1.5517218418 2.7546218599
P 6.2900765923 4.6634629812 0.3162141517
O 1.3681474624 4.6488245689 3.714711043
O 3.7757454886 1.5476807353 1.236712636
O 9.0671876084 1.5489761116 1.2297370068
O 6.5734796708 4.6446907517 3.7469706091
O 4.7677887077 4.6483792978 0.5936524966
O 0.3752510276 1.5571822381 3.1023214285
O 5.5773364745 1.5372263597 4.4360454959
O 9.9755551122 4.6544353241 1.9336801597
O 1.8125453987 5.8729276958 1.4861239277
O 3.332450412 0.3209201196 3.9465637587
O 8.4962400129 2.7429398369 3.4409875661
O 7.008165205 3.4478691256 1.0449220262
O 8.5174872711 0.3431236918 3.4429274613
O 7.008513127 5.8839044359 1.034067455
O 1.8179674896 3.4447735494 1.4787544579
O 3.3529588403 2.7458373237 3.9227767735
CELL_PARAMETERS {angstrom}
10.4063 0 0
0 6.2187 0
0 0 4.9469
!End