&CONTROL
calculation = "scf"
etot_conv_thr = 1.0d-5
forc_conv_thr = 1.0d-4
pseudo_dir = '/opt/QEpot/SSSP_precision_pseudos/'
disk_io = 'none'
tprnfor = .true.
tstress = .true.
verbosity = 'high'
/
!controlend

&SYSTEM
ntyp = 4
occupations = 'smearing'
smearing = 'cold'
degauss =   7.3498618000d-03
ecutrho = 1.080d+03
ecutwfc = 1.000d+02
ibrav = 0
nat = 25
nosym = .false.
starting_magnetization(1) =   3.1250000000d-01
starting_magnetization(2) =   0.0000000000d+00
starting_magnetization(3) =   0.0000000000d+00
starting_magnetization(4) =   0.0000000000d+00
nspin = 2
!systemend
/

&ELECTRONS
conv_thr =   2.0000000000d-10
electron_maxstep = 1000
mixing_beta =   4.0000000000d-01
/
K_POINTS {automatic}
5 7 9 0 0 0
ATOMIC_SPECIES
Fe  55.845  Fe.pbe-spn-kjpaw_psl.0.2.1.UPF
Na  22.98977  Na_ONCV_PBE-1.0.oncvpsp.upf
O  15.9994  O.pbe-n-kjpaw_psl.0.1.UPF
P  30.973761  P.pbe-n-rrkjus_psl.1.0.0.UPF
ATOMIC_POSITIONS {angstrom}
Na 6.041270800425 1.98498292146 2.2366715784
Fe 3.029458641825 4.889475573255 4.9055092877
Fe 2.299844851815 1.6215695559 2.4267166357
Fe 7.97116232157 1.58452040691 0.0080832346
Fe 8.53923703542 4.902665435955 2.5408416187
P 1.15164336777 4.88804558319 2.196126786
P 4.231495557975 1.608281748675 4.6608900296
P 9.74662799292 1.629307173375 2.7546219022
P 6.604581510135 4.89663858285 0.3162157418
O 1.436554853895 4.88126782206 3.7147113073
O 3.964536500295 1.625062910625 1.2367151062
O 9.520545401955 1.62642760434 1.2297350303
O 6.902156943045 4.876925614785 3.7469700422
O 5.00618163486 4.88079768834 0.5936527345
O 0.3940137369 1.635040192905 3.1023197156
O 5.85620672217 1.61408659419 4.4360435308
O 10.474329625305 4.88715755283 1.9336789003
O 1.90317594747 6.16657423473 1.4861229635
O 3.49907362791 0.33696834381 3.9465626165
O 8.92105666998 2.880084876165 3.4409894365
O 7.35857257821 3.62026471086 1.0449237932
O 8.943357891195 0.36027914076 3.4429286213
O 7.35894408312 6.178099040505 1.0340653477
O 1.908868713885 3.61701295263 1.4787520825
O 3.520609986075 2.883127686075 3.9227779213
CELL_PARAMETERS {angstrom}
10.926615 0 0
0 6.529635 0
0 0 4.9469
!End