&CONTROL
calculation = "scf"
etot_conv_thr = 1.0d-5
forc_conv_thr = 1.0d-4
pseudo_dir = '/opt/QEpot/SSSP_precision_pseudos/'
disk_io = 'none'
tprnfor = .true.
tstress = .true.
verbosity = 'high'
/
!controlend

&SYSTEM
ntyp = 4
occupations = 'smearing'
smearing = 'cold'
degauss =   7.3498618000d-03
ecutrho = 1.080d+03
ecutwfc = 1.000d+02
ibrav = 0
nat = 25
nosym = .false.
starting_magnetization(1) =   3.1250000000d-01
starting_magnetization(2) =   0.0000000000d+00
starting_magnetization(3) =   0.0000000000d+00
starting_magnetization(4) =   0.0000000000d+00
nspin = 2
!systemend
/

&ELECTRONS
conv_thr =   2.0000000000d-10
electron_maxstep = 1000
mixing_beta =   4.0000000000d-01
/
K_POINTS {automatic}
5 7 9 0 0 0
ATOMIC_SPECIES
Fe  55.845  Fe.pbe-spn-kjpaw_psl.0.2.1.UPF
Na  22.98977  Na_ONCV_PBE-1.0.oncvpsp.upf
O  15.9994  O.pbe-n-kjpaw_psl.0.1.UPF
P  30.973761  P.pbe-n-rrkjus_psl.1.0.0.UPF
ATOMIC_POSITIONS {angstrom}
Na 5.465911676575 1.8904599252 2.2366715784
Fe 2.740938771175 4.6566434031 4.9055092877
Fe 2.080812008785 1.544351958 2.4267166357
Fe 7.21200400523 1.5090670542 0.0080832346
Fe 7.72597636538 4.6692051771 2.5408416187
P 1.04196304703 4.6552815078 2.196126786
P 3.828495981025 1.5316969035 4.6608900296
P 8.81837770788 1.5517211175 2.7546219022
P 5.975573747265 4.663465317 0.3162157418
O 1.299740105905 4.6488264972 3.7147113073
O 3.586961595505 1.5476789625 1.2367151062
O 8.613826792245 1.5489786708 1.2297350303
O 6.244808662755 4.6446910617 3.7469700422
O 4.52940243154 4.6483787508 0.5936527345
O 0.3564886191 1.5571811361 3.1023197156
O 5.29847274863 1.5372253278 4.4360435308
O 9.476774422895 4.6544357646 1.9336789003
O 1.72192109533 5.8729278426 1.4861229635
O 3.16582852049 0.3209222322 3.9465626165
O 8.07143222522 2.7429379773 3.4409894365
O 6.65775614219 3.4478711532 1.0449237932
O 8.091609520605 0.3431229912 3.4429286213
O 6.65809226568 5.8839038481 1.0340653477
O 1.727071693515 3.4447742406 1.4787520825
O 3.185313796925 2.7458358915 3.9227779213
CELL_PARAMETERS {angstrom}
9.885985 0 0
0 6.2187 0
0 0 4.9469
!End