&CONTROL
calculation = "scf"
etot_conv_thr = 1.0d-5
forc_conv_thr = 1.0d-4
pseudo_dir = '/opt/QEpot/SSSP_precision_pseudos/'
disk_io = 'none'
tprnfor = .true.
tstress = .true.
verbosity = 'high'
/
!controlend

&SYSTEM
ntyp = 4
occupations = 'smearing'
smearing = 'cold'
degauss =   7.3498618000d-03
ecutrho = 1.080d+03
ecutwfc = 1.000d+02
ibrav = 0
nat = 25
nosym = .false.
starting_magnetization(1) =   3.1250000000d-01
starting_magnetization(2) =   0.0000000000d+00
starting_magnetization(3) =   0.0000000000d+00
starting_magnetization(4) =   0.0000000000d+00 
nspin = 2
!systemend
/

&ELECTRONS
conv_thr =   2.0000000000d-10
electron_maxstep = 1000
mixing_beta =   4.0000000000d-01
/
K_POINTS {automatic}
5 7 9 0 0 0
ATOMIC_SPECIES
Fe  55.845  Fe.pbe-spn-kjpaw_psl.0.2.1.UPF
Na  22.98977  Na_ONCV_PBE-1.0.oncvpsp.upf
O  15.9994  O.pbe-n-kjpaw_psl.0.1.UPF
P  30.973761  P.pbe-n-rrkjus_psl.1.0.0.UPF
ATOMIC_POSITIONS {angstrom}
Na 5.552422370365 0.8944542771 2.3076101244
Fe 2.83955771533 4.6759586853 4.9083834366
Fe 2.151530795448 1.5745002156 2.426850202
Fe 7.450495415192 1.6215508998 0.0200497857
Fe 8.0080328831 4.6529992449 2.5325753488
P 1.08415122786 4.6797520923 2.1968094582
P 3.968805164555 1.5970927527 4.6666284336
P 9.123169216087 1.5593949933 2.755819052
P 6.195977273443 4.6681977477 0.2964429825
O 1.348568373327 4.6913686239 3.7155028113
O 3.718693559698 1.5665029674 1.2411574224
O 8.912607621572 1.5656074746 1.2307244103
O 6.449322462587 4.7011755138 3.7217161177
O 4.702501346055 4.7006842365 0.6001974832
O 0.367543925343 1.5509251239 3.0979268684
O 5.488149766237 1.5874599864 4.4339905673
O 9.816466059727 4.6802806818 1.9295729733
O 1.796870042943 5.8868141997 1.4772976939
O 3.315672302957 0.3805906587 3.9137300412
O 8.381419772455 2.7737081049 3.4461638939
O 6.910445907872 3.4515588423 1.0043146911
O 8.349820695628 0.3708086436 3.4418353564
O 6.916401433362 5.8779401148 1.0204811603
O 1.787036262882 3.4597799637 1.490105218
O 3.275856238212 2.8069221816 3.960735485
CELL_PARAMETERS {angstrom}
10.232861666667 0 0
0 6.2187 0
0 0 4.9469
!End