&CONTROL
calculation = "scf"
etot_conv_thr = 1.0d-5
forc_conv_thr = 1.0d-4
pseudo_dir = '/opt/QEpot/SSSP_precision_pseudos/'
disk_io = 'none'
tprnfor = .true.
tstress = .true.
verbosity = 'high'
/
!controlend

&SYSTEM
ntyp = 4
occupations = 'smearing'
smearing = 'cold'
degauss =   7.3498618000d-03
ecutrho = 1.080d+03
ecutwfc = 1.000d+02
ibrav = 0
nat = 25
nosym = .false.
starting_magnetization(1) =   3.1250000000d-01
starting_magnetization(2) =   0.0000000000d+00
starting_magnetization(3) =   0.0000000000d+00
starting_magnetization(4) =   0.0000000000d+00 
nspin = 2
!systemend
/

&ELECTRONS
conv_thr =   2.0000000000d-10
electron_maxstep = 1000
mixing_beta =   4.0000000000d-01
/
K_POINTS {automatic}
5 7 9 0 0 0
ATOMIC_SPECIES
Fe  55.845  Fe.pbe-spn-kjpaw_psl.0.2.1.UPF
Na  22.98977  Na_ONCV_PBE-1.0.oncvpsp.upf
O  15.9994  O.pbe-n-kjpaw_psl.0.1.UPF
P  30.973761  P.pbe-n-rrkjus_psl.1.0.0.UPF
ATOMIC_POSITIONS {angstrom}
Na 5.552422370365 0.879546705815 2.26914995566
Fe 2.83955771533 4.598026040545 4.82657704599
Fe 2.151530795448 1.54825854534 2.386402698633
Fe 7.450495415192 1.59452505147 0.019715622605
Fe 8.0080328831 4.575449257485 2.490365759653
P 1.08415122786 4.601756224095 2.16019596723
P 3.968805164555 1.570474540155 4.58885129304
P 9.123169216087 1.533405076745 2.709888734467
P 6.195977273443 4.590394451905 0.291502266125
O 1.348568373327 4.613179146835 3.653577764445
O 3.718693559698 1.54039458461 1.22047146536
O 8.912607621572 1.53951401669 1.210212336795
O 6.449322462587 4.62282258857 3.659687515738
O 4.702501346055 4.622339499225 0.590194191813
O 0.367543925343 1.525076371835 3.046294753927
O 5.488149766237 1.56100231996 4.360090724512
O 9.816466059727 4.60227600377 1.897413423745
O 1.796870042943 5.788700629705 1.452676065668
O 3.315672302957 0.374247481055 3.84850120718
O 8.381419772455 2.727479636485 3.388727829002
O 6.910445907872 3.394032861595 0.987576112915
O 8.349820695628 0.36462849954 3.384471433793
O 6.916401433362 5.77997444622 1.003473140962
O 1.787036262882 3.402116964305 1.465270131033
O 3.275856238212 2.76014014524 3.894723226917
CELL_PARAMETERS {angstrom}
10.232861666667 0 0
0 6.115055 0
0 0 4.864451666667
!End