&CONTROL
calculation = "scf"
etot_conv_thr = 1.0d-5
forc_conv_thr = 1.0d-4
pseudo_dir = '/opt/QEpot/SSSP_precision_pseudos/'
disk_io = 'none'
tprnfor = .true.
tstress = .true.
verbosity = 'high'
/
!controlend

&SYSTEM
ntyp = 4
occupations = 'smearing'
smearing = 'cold'
degauss =   7.3498618000d-03
ecutrho = 1.080d+03
ecutwfc = 1.000d+02
ibrav = 0
nat = 25
nosym = .false.
starting_magnetization(1) =   3.1250000000d-01
starting_magnetization(2) =   0.0000000000d+00
starting_magnetization(3) =   0.0000000000d+00
starting_magnetization(4) =   0.0000000000d+00 
nspin = 2
!systemend
/

&ELECTRONS
conv_thr =   2.0000000000d-10
electron_maxstep = 1000
mixing_beta =   4.0000000000d-01
/
K_POINTS {automatic}
5 7 9 0 0 0
ATOMIC_SPECIES
Fe  55.845  Fe.pbe-spn-kjpaw_psl.0.2.1.UPF
Na  22.98977  Na_ONCV_PBE-1.0.oncvpsp.upf
O  15.9994  O.pbe-n-kjpaw_psl.0.1.UPF
P  30.973761  P.pbe-n-rrkjus_psl.1.0.0.UPF
ATOMIC_POSITIONS {angstrom}
Na 5.740640077835 0.909361848385 2.34607029314
Fe 2.93581390907 4.753891330055 4.99018982721
Fe 2.224464042752 1.60074188586 2.467297705367
Fe 7.703054581808 1.64857674813 0.020383948795
Fe 8.2794916249 4.730549232315 2.574784937947
P 1.12090211694 4.757747960505 2.23342294917
P 4.103340932845 1.623710965245 4.74440557416
P 9.432429189513 1.585384909855 2.801749369533
P 6.406010401357 4.746001043495 0.301383698875
O 1.394282555473 4.769558100965 3.777427858155
O 3.844750968502 1.59261135019 1.26184337944
O 9.214729913828 1.59170093251 1.251236483805
O 6.667943563013 4.77952843903 3.783744719662
O 4.861908171345 4.779028973775 0.610200774587
O 0.380003041457 1.576773875965 3.149558982873
O 5.674188741363 1.61391765284 4.507890410088
O 10.149227621073 4.75828535983 1.961732522855
O 1.857780891857 5.984927769695 1.501919322132
O 3.428067974243 0.386933836345 3.97895887522
O 8.665535696945 2.819936573315 3.503599958798
O 7.144698311528 3.509084823005 1.021053269285
O 8.632865464972 0.37698878766 3.499199279007
O 7.150855719238 5.97590578338 1.037489179638
O 1.847613763318 3.517442963095 1.514940304967
O 3.386902212388 2.85370421796 4.026747743083
CELL_PARAMETERS {angstrom}
10.579738333333 0 0
0 6.322345 0
0 0 5.029348333333
!End