&CONTROL
calculation = "scf"
etot_conv_thr = 1.0d-5
forc_conv_thr = 1.0d-4
pseudo_dir = '/opt/QEpot/SSSP_precision_pseudos/'
disk_io = 'none'
tprnfor = .true.
tstress = .true.
verbosity = 'high'
/
!controlend

&SYSTEM
ntyp = 4
occupations = 'smearing'
smearing = 'cold'
degauss =   7.3498618000d-03
ecutrho = 1.080d+03
ecutwfc = 1.000d+02
ibrav = 0
nat = 25
nosym = .false.
starting_magnetization(1) =   3.1250000000d-01
starting_magnetization(2) =   0.0000000000d+00
starting_magnetization(3) =   0.0000000000d+00
starting_magnetization(4) =   0.0000000000d+00 
nspin = 2
!systemend
/

&ELECTRONS
conv_thr =   2.0000000000d-10
electron_maxstep = 1000
mixing_beta =   4.0000000000d-01
/
K_POINTS {automatic}
5 7 9 0 0 0
ATOMIC_SPECIES
Fe  55.845  Fe.pbe-spn-kjpaw_psl.0.2.1.UPF
Na  22.98977  Na_ONCV_PBE-1.0.oncvpsp.upf
O  15.9994  O.pbe-n-kjpaw_psl.0.1.UPF
P  30.973761  P.pbe-n-rrkjus_psl.1.0.0.UPF
ATOMIC_POSITIONS {angstrom}
Na 5.364204662895 0.849731563245 2.3076101244
Fe 2.74330152159 4.442160751035 4.9083834366
Fe 2.078597548145 1.49577520482 2.426850202
Fe 7.197936248575 1.54047335481 0.0200497857
Fe 7.7365741413 4.420349282655 2.5325753488
P 1.04740033878 4.445764487685 2.1968094582
P 3.834269396265 1.517238115065 4.6666284336
P 8.81390924266 1.481425243635 2.755819052
P 5.98594414553 4.434787860315 0.2964429825
O 1.30285419118 4.456800192705 3.7155028113
O 3.592636150895 1.48817781903 1.2411574224
O 8.610485329315 1.48732710087 1.2307244103
O 6.23070136216 4.46611673811 3.7217161177
O 4.543094520765 4.465650024675 0.6001974832
O 0.35508480923 1.473378867705 3.0979268684
O 5.30211079111 1.50808698708 4.4339905673
O 9.48370449838 4.44626664771 1.9295729733
O 1.73595919403 5.592473489715 1.4772976939
O 3.20327663167 0.361561125765 3.9137300412
O 8.097303847965 2.635022699655 3.4461638939
O 6.676193504215 3.278980900185 1.0043146911
O 8.066775926285 0.35226821142 3.4418353564
O 6.681947147485 5.58404310906 1.0204811603
O 1.726458762445 3.286790965515 1.490105218
O 3.164810264035 2.66657607252 3.960735485
CELL_PARAMETERS {angstrom}
9.885985 0 0
0 5.907765 0
0 0 4.9469
!End