&CONTROL
calculation = "scf"
etot_conv_thr = 1.0d-5
forc_conv_thr = 1.0d-4
pseudo_dir = '/opt/QEpot/SSSP_precision_pseudos/'
disk_io = 'none'
tprnfor = .true.
tstress = .true.
verbosity = 'high'
/
!controlend

&SYSTEM
ntyp = 4
occupations = 'smearing'
smearing = 'cold'
degauss =   7.3498618000d-03
ecutrho = 1.080d+03
ecutwfc = 1.000d+02
ibrav = 0
nat = 25
nosym = .false.
starting_magnetization(1) =   3.1250000000d-01
starting_magnetization(2) =   0.0000000000d+00
starting_magnetization(3) =   0.0000000000d+00
starting_magnetization(4) =   0.0000000000d+00 
nspin = 2
!systemend
/

&ELECTRONS
conv_thr =   2.0000000000d-10
electron_maxstep = 1000
mixing_beta =   4.0000000000d-01
/
K_POINTS {automatic}
5 7 9 0 0 0
ATOMIC_SPECIES
Fe  55.845  Fe.pbe-spn-kjpaw_psl.0.2.1.UPF
Na  22.98977  Na_ONCV_PBE-1.0.oncvpsp.upf
O  15.9994  O.pbe-n-kjpaw_psl.0.1.UPF
P  30.973761  P.pbe-n-rrkjus_psl.1.0.0.UPF
ATOMIC_POSITIONS {angstrom}
Na 5.45831351663 0.8944542771 2.3076101244
Fe 2.79142961846 4.6759586853 4.9083834366
Fe 2.115064171797 1.5745002156 2.426850202
Fe 7.324215831883 1.6215508998 0.0200497857
Fe 7.8723035122 4.6529992449 2.5325753488
P 1.06577578332 4.6797520923 2.1968094582
P 3.90153728041 1.5970927527 4.6666284336
P 8.968539229373 1.5593949933 2.755819052
P 6.090960709487 4.6681977477 0.2964429825
O 1.325711282253 4.6913686239 3.7155028113
O 3.655664855297 1.5665029674 1.2411574224
O 8.761546475443 1.5656074746 1.2307244103
O 6.340011912373 4.7011755138 3.7217161177
O 4.62279793341 4.7006842365 0.6001974832
O 0.361314367287 1.5509251239 3.0979268684
O 5.395130278673 1.5874599864 4.4339905673
O 9.650085279053 4.6802806818 1.9295729733
O 1.766414618487 5.8868141997 1.4772976939
O 3.259474467313 0.3805906587 3.9137300412
O 8.23936181021 2.7737081049 3.4461638939
O 6.793319706043 3.4515588423 1.0043146911
O 8.208298310957 0.3708086436 3.4418353564
O 6.799174290423 5.8779401148 1.0204811603
O 1.756747512663 3.4597799637 1.490105218
O 3.220333251123 2.8069221816 3.960735485
CELL_PARAMETERS {angstrom}
10.059423333333 0 0
0 6.2187 0
0 0 4.9469
!End