&CONTROL
calculation = "scf"
etot_conv_thr =   1.0000000000d-05
forc_conv_thr =   1.0000000000d-04
prefix = 'aiida'
pseudo_dir = '/opt/QEpot/SSSP_precision_pseudos/'
tprnfor = .true.
tstress = .true.
verbosity = 'high'
disk_io = 'none'
/
&SYSTEM
degauss =   2.2049585400d-02
ecutrho = 4.4000000000d+02
ecutwfc = 8.0000000000d+01
ibrav = 0
nat = 15
nosym = .false.
ntyp = 2
occupations = 'smearing'
smearing = 'cold'
/
&ELECTRONS
conv_thr =   2.0000000000d-10
electron_maxstep = 80
mixing_beta =   4.0000000000d-01
/
K_POINTS {automatic}
5 5 5 0 0 0
ATOMIC_SPECIES
B  10.81  B_pbe_v1.01.uspp.F.UPF
N  14.007  N.oncvpsp.upf
ATOMIC_POSITIONS {angstrom}
B 4.305926127776 1.156260251612 0.84540939555
B 2.963885211648 1.825721077725 2.923598811592
B 2.948618755836 3.34952148923 0.834694515759
B 6.560997927938 2.553791155888 3.448741970864
B 5.218957011811 4.732918307719 3.451459960007
B 6.555626938604 4.075218759044 1.362555664174
B 7.831211906558 5.869539081989 4.273776677183
B 8.753547828167 5.413736515341 2.875730460455
B 8.738281372355 4.408976038443 4.263061797391
B 0.771335311419 1.494336606675 0.020374689231
B 1.693671233028 0.019639477343 0.023092678375
B 0.771335311419 0.47544204399 1.421138895102
B 4.767389303032 2.943402875491 2.14979367235
N 5.854008594097 3.625316468551 2.641363306893
N 3.670874545489 2.26386209078 1.655506048664
CELL_PARAMETERS {angstrom}
5.03846 0 0
2.242221897796 4.512041681173 0
2.242221897796 1.389567461306 4.29274066339
!End