&CONTROL
calculation = "scf"
etot_conv_thr =   1.0000000000d-05
forc_conv_thr =   1.0000000000d-04
prefix = 'aiida'
pseudo_dir = '/opt/QEpot/SSSP_precision_pseudos/'
tprnfor = .true.
tstress = .true.
verbosity = 'high'
disk_io = 'none'
/
&SYSTEM
degauss =   2.2049585400d-02
ecutrho = 4.4000000000d+02
ecutwfc = 8.0000000000d+01
ibrav = 0
nat = 15
nosym = .false.
ntyp = 2
occupations = 'smearing'
smearing = 'cold'
/
&ELECTRONS
conv_thr =   2.0000000000d-10
electron_maxstep = 80
mixing_beta =   4.0000000000d-01
/
K_POINTS {automatic}
5 5 5 0 0 0
ATOMIC_SPECIES
B  10.81  B_pbe_v1.01.uspp.F.UPF
N  14.007  N.oncvpsp.upf
ATOMIC_POSITIONS {angstrom}
B 4.34905507528 1.200695251774 0.882414691375
B 3.030033565065 1.890439400865 3.02057898531
B 3.028356068174 3.455869126502 0.875241119931
B 6.660523859159 2.646416876887 3.575517355492
B 5.341502348945 4.897884811205 3.56664224229
B 6.654379220452 4.206590440102 1.421304376912
B 7.997839807381 6.076500938371 4.429001534443
B 8.880583485265 5.602179508744 2.971060001375
B 8.878905988374 4.551856591205 4.421827962999
B 0.80997393896 1.550429412184 0.028930512425
B 1.692717616844 0.022079124608 0.020055399223
B 0.80997393896 0.496400554234 1.477996932291
B 4.843045141204 3.046661950279 2.220090910232
N 5.961832601972 3.754891338262 2.740298047937
N 3.728724822253 2.343688724716 1.708758885729
CELL_PARAMETERS {angstrom}
5.03846 0 0
2.319539894271 4.667629325352 0
2.319539894271 1.437483580661 4.440766203507
!End