&CONTROL
calculation = "scf"
etot_conv_thr =   1.0000000000d-05
forc_conv_thr =   1.0000000000d-04
prefix = 'aiida'
pseudo_dir = '/opt/QEpot/SSSP_precision_pseudos/'
tprnfor = .true.
tstress = .true.
verbosity = 'high'
disk_io = 'none'
/
&SYSTEM
degauss =   2.2049585400d-02
ecutrho = 4.4000000000d+02
ecutwfc = 8.0000000000d+01
ibrav = 0
nat = 15
nosym = .false.
ntyp = 2
occupations = 'smearing'
smearing = 'cold'
/
&ELECTRONS
conv_thr =   2.0000000000d-10
electron_maxstep = 80
mixing_beta =   4.0000000000d-01
/
K_POINTS {automatic}
5 5 5 0 0 0
ATOMIC_SPECIES
B  10.81  B_pbe_v1.01.uspp.F.UPF
N  14.007  N.oncvpsp.upf
ATOMIC_POSITIONS {angstrom}
B 4.515251474546 1.199346270947 0.866039165644
B 3.071230135395 1.893019476223 3.022462459146
B 3.085666297507 3.463397519271 0.869423744877
B 6.858766427686 2.64506789606 3.559141829761
B 5.414745088535 4.900464886562 3.568525716126
B 6.869736384285 4.214118832871 1.415487001858
B 8.161130144537 6.075151957543 4.412626008712
B 9.129914407825 5.604759584102 2.97294347521
B 9.144350569937 4.559384983973 4.416010587945
B 0.800082155256 1.549080431357 0.012554986693
B 1.768866418544 0.024659199965 0.021938873058
B 0.800082155256 0.495051573407 1.46162140656
B 4.963265178784 3.049242025636 2.221974384068
N 6.111059641698 3.753542357435 2.723922522206
N 3.818936921382 2.346268800073 1.710642359565
CELL_PARAMETERS {angstrom}
5.29907 0 0
2.319539894271 4.667629325352 0
2.319539894271 1.437483580661 4.440766203507
!End