&CONTROL
calculation = "scf"
etot_conv_thr =   1.0000000000d-05
forc_conv_thr =   1.0000000000d-04
prefix = 'aiida'
pseudo_dir = '/opt/QEpot/SSSP_precision_pseudos/'
tprnfor = .true.
tstress = .true.
verbosity = 'high'
disk_io = 'none'
/
&SYSTEM
degauss =   2.2049585400d-02
ecutrho = 4.4000000000d+02
ecutwfc = 8.0000000000d+01
ibrav = 0
nat = 15
nosym = .false.
ntyp = 2
occupations = 'smearing'
smearing = 'cold'
/
&ELECTRONS
conv_thr =   2.0000000000d-10
electron_maxstep = 80
mixing_beta =   4.0000000000d-01
/
K_POINTS {automatic}
5 5 5 0 0 0
ATOMIC_SPECIES
B  10.81  B_pbe_v1.01.uspp.F.UPF
N  14.007  N.oncvpsp.upf
ATOMIC_POSITIONS {angstrom}
B 4.227568763767 1.138098286924 0.839088293789
B 2.911001524699 1.800598764369 2.868367819781
B 2.915067347596 3.292901841156 0.839213942502
B 6.443760015651 2.511533830782 3.3975358247
B 5.127192776583 4.657671904191 3.387127913912
B 6.45988573411 4.006087089077 1.357974036634
B 7.69207375326 5.770113689191 4.208345794703
B 8.600842371968 5.326751866854 2.821324785042
B 8.604908194865 4.334089932624 4.208471443416
B 0.753919168383 1.470345739314 0.028278323786
B 1.66268778709 0.025656501924 0.017870412998
B 0.753919168383 0.469018324261 1.404891422659
B 4.683410717956 2.899010186311 2.107904148456
N 5.748960153083 3.564584569088 2.604077482522
N 3.605801387267 2.231185622027 1.622138725179
CELL_PARAMETERS {angstrom}
4.95159 0 0
2.203562899558 4.434247859084 0
2.203562899558 1.365609401628 4.218727893332
!End