&CONTROL
calculation = "scf"
etot_conv_thr =   1.0000000000d-05
forc_conv_thr =   1.0000000000d-04
prefix = 'aiida'
pseudo_dir = '/opt/QEpot/SSSP_precision_pseudos/'
tprnfor = .true.
tstress = .true.
verbosity = 'high'
disk_io = 'none'
/
&SYSTEM
degauss =   2.2049585400d-02
ecutrho = 4.4000000000d+02
ecutwfc = 8.0000000000d+01
ibrav = 0
nat = 15
nosym = .false.
ntyp = 2
occupations = 'smearing'
smearing = 'cold'
/
&ELECTRONS
conv_thr =   2.0000000000d-10
electron_maxstep = 80
mixing_beta =   4.0000000000d-01
/
K_POINTS {automatic}
5 5 5 0 0 0
ATOMIC_SPECIES
B  10.81  B_pbe_v1.01.uspp.F.UPF
N  14.007  N.oncvpsp.upf
ATOMIC_POSITIONS {angstrom}
B 4.62947497674 1.210164240879 0.869152372177
B 3.114054685926 1.901738741721 3.016250841975
B 3.110278943869 3.454281000489 0.873647463413
B 6.99435404272 2.655885865992 3.562255036294
B 5.478933751906 4.909184152061 3.562314098956
B 6.999713653647 4.20500231409 1.419710720393
B 8.273416271991 6.085969927475 4.415739215244
B 9.311495193176 5.6134788496 2.96673185804
B 9.307719451118 4.550268465192 4.42023430648
B 0.79691353547 1.559898401289 0.015668193226
B 1.834992456655 0.033378465464 0.015727255888
B 0.79691353547 0.505869543339 1.464734613092
B 5.058772040815 3.057961291135 2.215762766897
N 6.213970237533 3.764360327367 2.727035728738
N 3.894438491114 2.354988065572 1.704430742394
CELL_PARAMETERS {angstrom}
5.47281 0 0
2.319539894271 4.667629325352 0
2.319539894271 1.437483580661 4.440766203507
!End