&CONTROL
calculation = "scf"
etot_conv_thr =   1.0000000000d-05
forc_conv_thr =   1.0000000000d-04
prefix = 'aiida'
pseudo_dir = '/opt/QEpot/SSSP_precision_pseudos/'
tprnfor = .true.
tstress = .true.
verbosity = 'high'
disk_io = 'none'
/
&SYSTEM
degauss =   2.2049585400d-02
ecutrho = 4.4000000000d+02
ecutwfc = 8.0000000000d+01
ibrav = 0
nat = 15
nosym = .false.
ntyp = 2
occupations = 'smearing'
smearing = 'cold'
/
&ELECTRONS
conv_thr =   2.0000000000d-10
electron_maxstep = 80
mixing_beta =   4.0000000000d-01
/
K_POINTS {automatic}
5 5 5 0 0 0
ATOMIC_SPECIES
B  10.81  B_pbe_v1.01.uspp.F.UPF
N  14.007  N.oncvpsp.upf
ATOMIC_POSITIONS {angstrom}
B 4.584575849183 1.22285211129 0.877377388495
B 3.109587902656 1.932813881921 3.026258964604
B 3.14142265341 3.565245718273 0.867907501494
B 6.948280343497 2.687705726657 3.570480052612
B 5.510674411179 5.034615419072 3.572322221585
B 6.987682536442 4.335099022128 1.413970758474
B 8.291235308463 6.222916780796 4.423964231563
B 9.299399769155 5.768812972709 2.976739980669
B 9.26862287027 4.659498225156 4.414494344561
B 0.821080126636 1.593453219774 0.023893209544
B 1.804014951898 0.034550749565 0.025735378517
B 0.795850491206 0.488654557652 1.472959629411
B 5.051408851277 3.13621449474 2.225770889526
N 6.207075093341 3.842141400473 2.735260745056
N 3.888175167021 2.415326129888 1.714438865023
CELL_PARAMETERS {angstrom}
5.38594 0 0
2.396857890747 4.82321696953 0
2.319539894271 1.437483580661 4.440766203507
!End