&CONTROL
calculation = "scf"
etot_conv_thr =   1.0000000000d-05
forc_conv_thr =   1.0000000000d-04
prefix = 'aiida'
pseudo_dir = '/opt/QEpot/SSSP_precision_pseudos/'
tprnfor = .true.
tstress = .true.
verbosity = 'high'
disk_io = 'none'
/
&SYSTEM
degauss =   2.2049585400d-02
ecutrho = 4.4000000000d+02
ecutwfc = 8.0000000000d+01
ibrav = 0
nat = 15
nosym = .false.
ntyp = 2
occupations = 'smearing'
smearing = 'cold'
/
&ELECTRONS
conv_thr =   2.0000000000d-10
electron_maxstep = 80
mixing_beta =   4.0000000000d-01
/
K_POINTS {automatic}
5 5 5 0 0 0
ATOMIC_SPECIES
B  10.81  B_pbe_v1.01.uspp.F.UPF
N  14.007  N.oncvpsp.upf
ATOMIC_POSITIONS {angstrom}
B 4.574821966373 1.199870450731 0.866543043685
B 3.089759370336 1.893632534873 3.014457919427
B 3.088675148795 3.451471609574 0.878199582069
B 6.929018975933 2.645592075844 3.559645707802
B 5.443956379896 4.901077945212 3.560521176407
B 6.925427547073 4.202192923175 1.42426283905
B 8.219731948994 6.075676137328 4.413129886753
B 9.217821760176 5.605372642752 2.964938935492
B 9.216737538635 4.547459074277 4.424786425137
B 0.800956586093 1.549604611141 0.013058864734
B 1.799046397275 0.025272258616 0.01393433334
B 0.800956586093 0.495575753191 1.462125284601
B 5.008135569475 3.049855084287 2.213969844349
N 6.164973680346 3.75406653722 2.724426400246
N 3.853804665923 2.346881858724 1.702637819846
CELL_PARAMETERS {angstrom}
5.38594 0 0
2.319539894271 4.667629325352 0
2.319539894271 1.437483580661 4.440766203507
!End