&CONTROL
calculation = "scf"
etot_conv_thr =   1.0000000000d-05
forc_conv_thr =   1.0000000000d-04
prefix = 'aiida'
pseudo_dir = '/opt/QEpot/SSSP_precision_pseudos/'
tprnfor = .true.
tstress = .true.
verbosity = 'high'
disk_io = 'none'
/
&SYSTEM
degauss =   2.2049585400d-02
ecutrho = 4.4000000000d+02
ecutwfc = 8.0000000000d+01
ibrav = 0
nat = 15
nosym = .false.
ntyp = 2
occupations = 'smearing'
smearing = 'cold'
/
&ELECTRONS
conv_thr =   2.0000000000d-10
electron_maxstep = 80
mixing_beta =   4.0000000000d-01
/
K_POINTS {automatic}
5 5 5 0 0 0
ATOMIC_SPECIES
B  10.81  B_pbe_v1.01.uspp.F.UPF
N  14.007  N.oncvpsp.upf
ATOMIC_POSITIONS {angstrom}
B 4.248477189181 1.163726958373 0.881313056162
B 2.990072651465 1.858921045559 3.024556555945
B 2.931216483717 3.298612696342 0.881594578571
B 6.535002689509 2.580750598105 3.574415720279
B 5.220525130481 4.72483226568 3.570619812926
B 6.490296097363 4.020636024561 1.427657835552
B 7.805606393664 5.853144170605 4.42789989923
B 8.678620239266 5.384272679074 2.97503757201
B 8.713681545974 4.397202597775 4.428181421639
B 0.752537627252 1.482160696671 0.027828877211
B 1.663395925999 0.035415053448 0.024032969858
B 0.790382080397 0.504286544979 1.476895297078
B 4.741575947632 2.944376499864 2.224068480867
N 5.818389873776 3.620283240819 2.739196412723
N 3.650612445887 2.268275983234 1.712736456364
CELL_PARAMETERS {angstrom}
4.95159 0 0
2.203562899558 4.434247859084 0
2.319539894271 1.437483580661 4.440766203507
!End