&CONTROL
calculation = "scf"
etot_conv_thr =   1.0000000000d-05
forc_conv_thr =   1.0000000000d-04
prefix = 'aiida'
pseudo_dir = '/opt/QEpot/SSSP_precision_pseudos/'
tprnfor = .true.
tstress = .true.
verbosity = 'high'
disk_io = 'none'
/
&SYSTEM
degauss =   2.2049585400d-02
ecutrho = 4.4000000000d+02
ecutwfc = 8.0000000000d+01
ibrav = 0
nat = 4
nosym = .false.
ntyp = 2
occupations = 'smearing'
smearing = 'cold'
/
&ELECTRONS
conv_thr =   2.0000000000d-10
electron_maxstep = 80
mixing_beta =   4.0000000000d-01
/
K_POINTS {automatic}
10 10 5 0 0 0
ATOMIC_SPECIES
B  10.81  B_pbe_v1.01.uspp.F.UPF
N  14.007  N.oncvpsp.upf
ATOMIC_POSITIONS {angstrom}
B 0.007389202834 1.449546666625 2.088007113172
B 1.263059214169 0.724585247568 0.009781279839
N 0.007389202834 1.449546666625 0.531632099492
N 1.263059214169 0.724585247568 2.609857932826
CELL_PARAMETERS {angstrom}
2.511335 0 0
-1.255667500000 2.174879907413 0
0.000000000000 0.000000000000 4.156451666667
!End