&CONTROL
calculation = "scf"
etot_conv_thr = 1.0d-5
forc_conv_thr = 1.0d-4
pseudo_dir = '/opt/QEpot/SSSP_precision_pseudos/'
disk_io = 'none'
tprnfor = .true.
tstress = .true.
verbosity = 'high'
/
!controlend

&SYSTEM
ntyp = 4
occupations = 'smearing'
smearing = 'cold'
degauss =   7.3498618000d-03
ecutrho =   1.080d+03
ecutwfc =   1.000d+02
ibrav = 0
nat = 28
nosym = .false.
starting_magnetization(1) =   3.1250000000d-01
starting_magnetization(2) =   0.0000000000d+00
starting_magnetization(3) =   0.0000000000d+00
starting_magnetization(4) =   0.0000000000d+00
nspin = 2
!systemend
/

&ELECTRONS
conv_thr =   2.0000000000d-10
electron_maxstep = 1000
mixing_beta =   4.0000000000d-01
/
K_POINTS {automatic}
5 7 9 0 0 0
ATOMIC_SPECIES
Fe  55.845  Fe.pbe-spn-kjpaw_psl.0.2.1.UPF
Na  22.98977  Na_ONCV_PBE-1.0.oncvpsp.upf
O  15.9994  O.pbe-n-kjpaw_psl.0.1.UPF
P  30.973761  P.pbe-n-rrkjus_psl.1.0.0.UPF
ATOMIC_POSITIONS {angstrom}
Na            0.0000286955        0.0000134253        0.0000145519
Na            5.2443948108        0.0000023875        2.5204620595
Na            0.0000225057        3.1343103067        0.0000149239
Na            5.2443886373        3.1342965114        2.5204617157
Fe            3.0153846014        4.7014143806        4.9446488210
Fe            2.2290220122        1.5671932990        2.4242008562
Fe            7.4733916165        1.5671808466        0.0962741837
Fe            8.2597536378        4.7014019778        2.6167232847
P             1.1416531427        4.7014712759        2.2359140990
P             4.1027432742        1.5671361779        4.7563459712
P             9.3471206683        1.5671236525        2.8049908322
P             6.3860320576        4.7014587016        0.2845802054
O             1.1878567203        4.7014497744        3.7817872085
O             4.0565492065        1.5671575764        1.2613456722
O             9.3009182946        1.5671451153        1.2591461088
O             6.4322271191        4.7014373129        3.7795763288
O             4.9150297922        4.7014386281        0.8077920113
O             0.3293803427        1.5671681180        3.3282494318
O             5.5737461832        1.5671557618        4.2331310706
O            10.1593979014        4.7014263053        1.7126750217
O             1.8797193587        5.9408206746        1.5934451439
O             3.3646905368        0.3277900407        4.1138979665
O             8.6090257986        2.8064584587        3.4475000712
O             7.1241139209        3.4621295137        0.9270458514
O             8.6090547876        0.3277721377        3.4474790357
O             7.1240849422        5.9408045716        0.9270248629
O             1.8797486561        3.4621386644        1.5934241554
O             3.3646618267        2.8064656866        4.1138768960
CELL_PARAMETERS {angstrom}
  10.488738695  -0.000024818  -0.000008442
  -0.000014955   6.268590962   0.000000021
  -0.000004134   0.000000017   5.040903108
!End