&CONTROL
calculation = "scf"
etot_conv_thr = 1.0d-5
forc_conv_thr = 1.0d-4
pseudo_dir = '/opt/QEpot/SSSP_precision_pseudos/'
disk_io = 'none'
tprnfor = .true.
tstress = .true.
verbosity = 'high'
/
!controlend

&SYSTEM
ntyp = 4
occupations = 'smearing'
smearing = 'cold'
degauss =   7.3498618000d-03
ecutrho = 1.080d+03
ecutwfc = 1.000d+02
ibrav = 0
nat = 28
nosym = .false.
starting_magnetization(1) =   3.1250000000d-01
starting_magnetization(2) =   0.0000000000d+00
starting_magnetization(3) =   0.0000000000d+00
starting_magnetization(4) =   0.0000000000d+00
nspin = 2
!systemend
/

&ELECTRONS
conv_thr =   2.0000000000d-10
electron_maxstep = 1000
mixing_beta =   4.0000000000d-01
/
K_POINTS {automatic}
5 7 9 0 0 0
ATOMIC_SPECIES
Fe  55.845  Fe.pbe-spn-kjpaw_psl.0.2.1.UPF
Na  22.98977  Na_ONCV_PBE-1.0.oncvpsp.upf
O  15.9994  O.pbe-n-kjpaw_psl.0.1.UPF
P  30.973761  P.pbe-n-rrkjus_psl.1.0.0.UPF
ATOMIC_POSITIONS {angstrom}
Na 3.2514876e-05 1.2955107e-05 1.51227e-05
Na 5.419189782604 -2.3e-11 2.520460081796
Na 2.6395004e-05 3.238789621729 1.51227e-05
Na 5.419183662732 3.238776666599 2.520460081796
Fe 3.115886346269 4.858132612122 4.944644014492
Fe 2.30331524947 1.619433676162 2.424199055396
Fe 7.722470140873 1.619420721077 0.0962761491
Fe 8.535041237672 4.858119657036 2.616721108196
P 1.179700478357 4.858190910126 2.235911358597
P 4.239480098009 1.619375378161 4.756341194993
P 9.658656008819 1.619362423072 2.804988641396
P 6.598876389132 4.858177955037 0.2845789686
O 1.227440594685 4.858171477452 3.781783997994
O 4.191754221834 1.619401288406 1.261344079798
O 9.610915892404 1.6193883333 1.259146247398
O 6.646602265273 4.858158522346 3.779576083794
O 5.078843981853 4.858158522373 0.807789102299
O 0.34035241787 1.619407765941 3.328249184095
O 5.759512505297 1.619394810826 4.233126020394
O 10.498004069262 4.858145567258 1.712676020397
O 1.942366030453 6.138855024541 1.593443612698
O 3.476838465126 0.338717741311 4.113893612694
O 8.895955368991 2.900013582369 3.447496714495
O 7.361553109541 3.577539750836 0.927046714499
O 8.895990456688 0.338698308657 3.447476550895
O 7.361528860305 6.138842069441 0.927026550899
O 1.942401118117 3.577546228383 1.593423449098
O 3.476803377567 2.900020059916 4.113873449094
CELL_PARAMETERS {angstrom}
10.838323333333 0 0
-0.000033916390 6.477553333245 0
-0.000008798030 -0.000000000046 5.040899999992
!End