&CONTROL
calculation = "scf"
etot_conv_thr = 1.0d-5
forc_conv_thr = 1.0d-4
pseudo_dir = '/opt/QEpot/SSSP_precision_pseudos/'
disk_io = 'none'
tprnfor = .true.
tstress = .true.
verbosity = 'high'
/
!controlend

&SYSTEM
ntyp = 4
occupations = 'smearing'
smearing = 'cold'
degauss =   7.3498618000d-03
ecutrho = 1.080d+03
ecutwfc = 1.000d+02
ibrav = 0
nat = 28
nosym = .false.
starting_magnetization(1) =   3.1250000000d-01
starting_magnetization(2) =   0.0000000000d+00
starting_magnetization(3) =   0.0000000000d+00
starting_magnetization(4) =   0.0000000000d+00
nspin = 2
!systemend
/

&ELECTRONS
conv_thr =   2.0000000000d-10
electron_maxstep = 1000
mixing_beta =   4.0000000000d-01
/
K_POINTS {automatic}
5 7 9 0 0 0
ATOMIC_SPECIES
Fe  55.845  Fe.pbe-spn-kjpaw_psl.0.2.1.UPF
Na  22.98977  Na_ONCV_PBE-1.0.oncvpsp.upf
O  15.9994  O.pbe-n-kjpaw_psl.0.1.UPF
P  30.973761  P.pbe-n-rrkjus_psl.1.0.0.UPF
ATOMIC_POSITIONS {angstrom}
Na 3.303931e-05 1.316406e-05 1.51227e-05
Na 5.506596140372 -2.3e-11 2.520460081796
Na 2.682073e-05 3.291028164015 1.51227e-05
Na 5.506589921793 3.291014999932 2.520460081796
Fe 3.166142716854 4.936489589737 4.944644014492
Fe 2.340465563671 1.645553574165 2.424199055396
Fe 7.847026113597 1.645540410127 0.0962761491
Fe 8.67270326678 4.936476425698 2.616721108196
P 1.198727968369 4.936548828032 2.235911358597
P 4.30785894316 1.645494335874 4.756341194993
P 9.814440862117 1.645481171832 2.804988641396
P 6.705309887291 4.93653566399 0.2845789686
O 1.247238130091 4.936529081928 3.781783997994
O 4.259363196403 1.645520664026 1.261344079798
O 9.765930700308 1.645507499966 1.259146247398
O 6.753805634013 4.936515917868 3.779576083794
O 5.16076084301 4.936515917895 0.807789102299
O 0.345842066689 1.645527246037 3.328249184095
O 5.85240798745 1.645514081969 4.233126020394
O 10.667326763753 4.936502753827 1.712676020397
O 1.973694559672 6.23786881526 1.593443612698
O 3.532916620694 0.344180930688 4.113893612694
O 9.039438617152 2.946787994988 3.447496714495
O 7.480287863211 3.635242004882 0.927046714499
O 9.03947427078 0.344161184604 3.447476550895
O 7.480263222858 6.237855651206 0.927026550899
O 1.973730213264 3.635248586906 1.593423449098
O 3.532880967206 2.946794577012 4.113873449094
CELL_PARAMETERS {angstrom}
11.013135 0 0
-0.000034463428 6.58202999991 0
-0.000008798030 -0.000000000046 5.040899999992
!End