&CONTROL
calculation = "scf"
etot_conv_thr = 1.0d-5
forc_conv_thr = 1.0d-4
pseudo_dir = '/opt/QEpot/SSSP_precision_pseudos/'
disk_io = 'none'
tprnfor = .true.
tstress = .true.
verbosity = 'high'
/
!controlend

&SYSTEM
ntyp = 4
occupations = 'smearing'
smearing = 'cold'
degauss =   7.3498618000d-03
ecutrho = 1.080d+03
ecutwfc = 1.000d+02
ibrav = 0
nat = 28
nosym = .false.
starting_magnetization(1) =   3.1250000000d-01
starting_magnetization(2) =   0.0000000000d+00
starting_magnetization(3) =   0.0000000000d+00
starting_magnetization(4) =   0.0000000000d+00
nspin = 2
!systemend
/

&ELECTRONS
conv_thr =   2.0000000000d-10
electron_maxstep = 1000
mixing_beta =   4.0000000000d-01
/
K_POINTS {automatic}
5 7 9 0 0 0
ATOMIC_SPECIES
Fe  55.845  Fe.pbe-spn-kjpaw_psl.0.2.1.UPF
Na  22.98977  Na_ONCV_PBE-1.0.oncvpsp.upf
O  15.9994  O.pbe-n-kjpaw_psl.0.1.UPF
P  30.973761  P.pbe-n-rrkjus_psl.1.0.0.UPF
ATOMIC_POSITIONS {angstrom}
Na 3.041714e-05 1.2119293e-05 1.51227e-05
Na 5.069564351531 -2.3e-11 2.520460081796
Na 2.4692099e-05 3.029835452585 1.51227e-05
Na 5.069558626489 3.029823333269 2.520460081796
Fe 2.914860863927 4.544704701659 4.944644014492
Fe 2.154713992663 1.51495408415 2.424199055396
Fe 7.224246249976 1.514941964878 0.0962761491
Fe 7.984393121239 4.544692582387 2.616721108196
P 1.103590518308 4.544759238504 2.235911358597
P 3.965964717403 1.514899547309 4.756341194993
P 9.035516595629 1.514887428034 2.804988641396
P 6.173142396499 4.544747119228 0.2845789686
O 1.148250453063 4.54474105955 3.781783997994
O 3.921318323557 1.514923785928 1.261344079798
O 8.99085666079 1.514911666634 1.259146247398
O 6.217788790314 4.544728940256 3.779576083794
O 4.751176537227 4.544728940284 0.807789102299
O 0.318393822595 1.514929845555 3.328249184095
O 5.387930576684 1.514917726254 4.233126020394
O 9.820713291298 4.544716820982 1.712676020397
O 1.81705191358 5.742799861667 1.593443612698
O 3.252525842853 0.316864983805 4.113893612694
O 8.322022376345 2.712915931891 3.447496714495
O 6.88661409486 3.346730734652 0.927046714499
O 8.322055200322 0.316846804871 3.447476550895
O 6.886591410094 5.742787742379 0.927026550899
O 1.817084737525 3.346736794293 1.593423449098
O 3.25249301901 2.712921991532 4.113873449094
CELL_PARAMETERS {angstrom}
10.139076666667 0 0
-0.000031728236 6.059646666584 0
-0.000008798030 -0.000000000046 5.040899999992
!End