&CONTROL
calculation = "scf"
etot_conv_thr = 1.0d-5
forc_conv_thr = 1.0d-4
pseudo_dir = '/opt/QEpot/SSSP_precision_pseudos/'
disk_io = 'none'
tprnfor = .true.
tstress = .true.
verbosity = 'high'
/
!controlend

&SYSTEM
ntyp = 4
occupations = 'smearing'
smearing = 'cold'
degauss =   7.3498618000d-03
ecutrho = 1.080d+03
ecutwfc = 1.000d+02
ibrav = 0
nat = 28
nosym = .false.
starting_magnetization(1) =   3.1250000000d-01
starting_magnetization(2) =   0.0000000000d+00
starting_magnetization(3) =   0.0000000000d+00
starting_magnetization(4) =   0.0000000000d+00
nspin = 2
!systemend
/

&ELECTRONS
conv_thr =   2.0000000000d-10
electron_maxstep = 1000
mixing_beta =   4.0000000000d-01
/
K_POINTS {automatic}
5 7 9 0 0 0
ATOMIC_SPECIES
Fe  55.845  Fe.pbe-spn-kjpaw_psl.0.2.1.UPF
Na  22.98977  Na_ONCV_PBE-1.0.oncvpsp.upf
O  15.9994  O.pbe-n-kjpaw_psl.0.1.UPF
P  30.973761  P.pbe-n-rrkjus_psl.1.0.0.UPF
ATOMIC_POSITIONS {angstrom}
Na 3.1990442e-05 1.2746153e-05 1.51227e-05
Na 5.331783424836 -2.3e-11 2.520460081796
Na 2.5969278e-05 3.186551079443 1.51227e-05
Na 5.331777403672 3.186538333267 2.520460081796
Fe 3.065629975683 4.779775634506 4.944644014492
Fe 2.266164935268 1.593313778159 2.424199055396
Fe 7.597914168148 1.593301032027 0.0962761491
Fe 8.397379208564 4.779762888374 2.616721108196
P 1.160672988345 4.779832992221 2.235911358597
P 4.171101252857 1.593256420448 4.756341194993
P 9.502871155522 1.593243674313 2.804988641396
P 6.492442890974 4.779820246085 0.2845789686
O 1.20764305928 4.779813872977 3.781783997994
O 4.124145247265 1.593281912787 1.261344079798
O 9.455901084501 1.593269166633 1.259146247398
O 6.539398896533 4.779801126823 3.779576083794
O 4.996927120697 4.77980112685 0.807789102299
O 0.334862769051 1.593288285844 3.328249184095
O 5.666617023143 1.593275539683 4.233126020394
O 10.328681374771 4.779788380689 1.712676020397
O 1.911037501235 6.039841233823 1.593443612698
O 3.420760309558 0.333254551935 4.113893612694
O 8.752472120829 2.853239169749 3.447496714495
O 7.242818355871 3.51983749679 0.927046714499
O 8.752506642597 0.333235432711 3.447476550895
O 7.242794497752 6.039828487675 0.927026550899
O 1.911072022969 3.519843869861 1.593423449098
O 3.420725787928 2.85324554282 4.113873449094
CELL_PARAMETERS {angstrom}
10.663511666667 0 0
-0.000033369351 6.373076666579 0
-0.000008798030 -0.000000000046 5.040899999992
!End