&CONTROL
calculation = "scf"
etot_conv_thr = 1.0d-5
forc_conv_thr = 1.0d-4
pseudo_dir = '/opt/QEpot/SSSP_precision_pseudos/'
disk_io = 'none'
tprnfor = .true.
tstress = .true.
verbosity = 'high'
/
!controlend

&SYSTEM
ntyp = 4
occupations = 'smearing'
smearing = 'cold'
degauss =   7.3498618000d-03
ecutrho = 1.080d+03
ecutwfc = 1.000d+02
ibrav = 0
nat = 28
nosym = .false.
starting_magnetization(1) =   3.1250000000d-01
starting_magnetization(2) =   0.0000000000d+00
starting_magnetization(3) =   0.0000000000d+00
starting_magnetization(4) =   0.0000000000d+00
nspin = 2
!systemend
/

&ELECTRONS
conv_thr =   2.0000000000d-10
electron_maxstep = 1000
mixing_beta =   4.0000000000d-01
/
K_POINTS {automatic}
5 7 9 0 0 0
ATOMIC_SPECIES
Fe  55.845  Fe.pbe-spn-kjpaw_psl.0.2.1.UPF
Na  22.98977  Na_ONCV_PBE-1.0.oncvpsp.upf
O  15.9994  O.pbe-n-kjpaw_psl.0.1.UPF
P  30.973761  P.pbe-n-rrkjus_psl.1.0.0.UPF
ATOMIC_POSITIONS {angstrom}
Na 3.0417138e-05 1.25372e-05 1.51227e-05
Na 5.069564351531 -2.3e-11 2.520460081796
Na 2.4145058e-05 3.134312537157 1.51227e-05
Na 5.069558079451 3.134299999934 2.520460081796
Fe 2.914860043374 4.70141865689 4.944644014492
Fe 2.154713719137 1.567193880156 2.424199055396
Fe 7.224245976451 1.567181342978 0.0962761491
Fe 7.984392300689 4.701406119712 2.616721108196
P 1.103589697746 4.701475074315 2.235911358597
P 3.965964443886 1.567137462735 4.756341194993
P 9.035516322114 1.567124925553 2.804988641396
P 6.173141575939 4.701462537133 0.2845789686
O 1.148249632504 4.701456268501 3.781783997994
O 3.921318050035 1.567162537167 1.261344079798
O 8.99085638727 1.567149999967 1.259146247398
O 6.217787969757 4.701443731301 3.779576083794
O 4.75117571667 4.701443731328 0.807789102299
O 0.318393549073 1.567168805748 3.328249184095
O 5.387930303164 1.56715626854 4.233126020394
O 9.820712470744 4.70143119412 1.712676020397
O 1.81705087671 5.940827443104 1.593443612698
O 3.252525785643 0.327791362558 4.113893612694
O 8.322021886525 2.80646475713 3.447496714495
O 6.886613490604 3.462135242744 0.927046714499
O 8.322055143115 0.327772556764 3.447476550895
O 6.886590373226 5.94081490591 0.927026550899
O 1.817084133268 3.462141511338 1.593423449098
O 3.252492529188 2.806471025724 4.113873449094
CELL_PARAMETERS {angstrom}
10.139076666667 0 0
-0.000032822313 6.268599999914 0
-0.000008798030 -0.000000000046 5.040899999992
!End