&CONTROL
calculation = "scf"
etot_conv_thr = 1.0d-5
forc_conv_thr = 1.0d-4
pseudo_dir = '/opt/QEpot/SSSP_precision_pseudos/'
disk_io = 'none'
tprnfor = .true.
tstress = .true.
verbosity = 'high'
/
!controlend

&SYSTEM
ntyp = 4
occupations = 'smearing'
smearing = 'cold'
degauss =   7.3498618000d-03
ecutrho = 1.080d+03
ecutwfc = 1.000d+02
ibrav = 0
nat = 28
nosym = .false.
starting_magnetization(1) =   3.1250000000d-01
starting_magnetization(2) =   0.0000000000d+00
starting_magnetization(3) =   0.0000000000d+00
starting_magnetization(4) =   0.0000000000d+00
nspin = 2
!systemend
/

&ELECTRONS
conv_thr =   2.0000000000d-10
electron_maxstep = 1000
mixing_beta =   4.0000000000d-01
/
K_POINTS {automatic}
5 7 9 0 0 0
ATOMIC_SPECIES
Fe  55.845  Fe.pbe-spn-kjpaw_psl.0.2.1.UPF
Na  22.98977  Na_ONCV_PBE-1.0.oncvpsp.upf
O  15.9994  O.pbe-n-kjpaw_psl.0.1.UPF
P  30.973761  P.pbe-n-rrkjus_psl.1.0.0.UPF
ATOMIC_POSITIONS {angstrom}
Na 2.9892706e-05 1.191034e-05 1.51227e-05
Na 4.982157993762 -2.3e-11 2.520460081796
Na 2.4266373e-05 2.977596910299 1.51227e-05
Na 4.982152367429 2.977584999936 2.520460081796
Fe 2.864604493341 4.466347724044 4.944644014492
Fe 2.117563678462 1.488834186147 2.424199055396
Fe 7.099690277251 1.488822275829 0.0962761491
Fe 7.84673109213 4.466335813725 2.616721108196
P 1.084563028296 4.466401320598 2.235911358597
P 3.897585872252 1.488780589596 4.756341194993
P 8.879731742332 1.488768679274 2.804988641396
P 6.066708898341 4.466389410276 0.2845789686
O 1.128452917658 4.466383455074 3.781783997994
O 3.853709348988 1.488804410308 1.261344079798
O 8.835841852886 1.488792499968 1.259146247398
O 6.110585421574 4.466371544734 3.779576083794
O 4.66925967607 4.466371544761 0.807789102299
O 0.312904173776 1.488810365459 3.328249184095
O 5.295035094531 1.488798455111 4.233126020394
O 9.651390596807 4.466359634413 1.712676020397
O 1.785723384361 5.643786070948 1.593443612698
O 3.196447687285 0.311401794428 4.113893612694
O 8.178539128184 2.666141519272 3.447496714495
O 6.76787934119 3.289028480606 0.927046714499
O 8.178571386231 0.311383928924 3.447476550895
O 6.767857047541 5.643774160614 0.927026550899
O 1.785755642377 3.28903443577 1.593423449098
O 3.196415429371 2.666147474436 4.113873449094
CELL_PARAMETERS {angstrom}
9.964265 0 0
-0.000031181197 5.955169999918 0
-0.000008798030 -0.000000000046 5.040899999992
!End