&CONTROL
calculation = "scf"
etot_conv_thr = 1.0d-5
forc_conv_thr = 1.0d-4
pseudo_dir = '/opt/QEpot/SSSP_precision_pseudos/'
disk_io = 'none'
tprnfor = .true.
tstress = .true.
verbosity = 'high'
/
!controlend

&SYSTEM
ntyp = 4
occupations = 'smearing'
smearing = 'cold'
degauss =   7.3498618000d-03
ecutrho = 1.080d+03
ecutwfc = 1.000d+02
ibrav = 0
nat = 28
nosym = .false.
starting_magnetization(1) =   3.1250000000d-01
starting_magnetization(2) =   0.0000000000d+00
starting_magnetization(3) =   0.0000000000d+00
starting_magnetization(4) =   0.0000000000d+00
nspin = 2
!systemend
/

&ELECTRONS
conv_thr =   2.0000000000d-10
electron_maxstep = 1000
mixing_beta =   4.0000000000d-01
/
K_POINTS {automatic}
5 7 9 0 0 0
ATOMIC_SPECIES
Fe  55.845  Fe.pbe-spn-kjpaw_psl.0.2.1.UPF
Na  22.98977  Na_ONCV_PBE-1.0.oncvpsp.upf
O  15.9994  O.pbe-n-kjpaw_psl.0.1.UPF
P  30.973761  P.pbe-n-rrkjus_psl.1.0.0.UPF
ATOMIC_POSITIONS {angstrom}
Na 3.0941574e-05 1.2328247e-05 1.51227e-05
Na 5.156970709299 -2.3e-11 2.520460081796
Na 2.5117825e-05 3.082073994871 1.51227e-05
Na 5.15696488555 3.082061666601 2.520460081796
Fe 2.965117234512 4.623061679275 4.944644014492
Fe 2.191864306865 1.541073982153 2.424199055396
Fe 7.3488022227 1.541061653928 0.0962761491
Fe 8.122055150347 4.623049351049 2.616721108196
P 1.12261800832 4.62311715641 2.235911358597
P 4.034343562555 1.541018505022 4.756341194993
P 9.191301448927 1.541006176793 2.804988641396
P 6.279575894657 4.623104828181 0.2845789686
O 1.168047988469 4.623098664025 3.781783997994
O 3.988927298126 1.541043161547 1.261344079798
O 9.145871468693 1.541030833301 1.259146247398
O 6.324992159053 4.623086335779 3.779576083794
O 4.833093398384 4.623086335806 0.807789102299
O 0.323883471414 1.541049325652 3.328249184095
O 5.480826058837 1.541036997397 4.233126020394
O 9.990035985789 4.623074007551 1.712676020397
O 1.848380442798 5.841813652385 1.593443612698
O 3.308603998421 0.322328173181 4.113893612694
O 8.465505624507 2.759690344511 3.447496714495
O 7.00534884853 3.404432988698 0.927046714499
O 8.465539014414 0.322309680817 3.447476550895
O 7.005325772647 5.841801324145 0.927026550899
O 1.848413832673 3.404439152815 1.593423449098
O 3.308570608649 2.759696508628 4.113873449094
CELL_PARAMETERS {angstrom}
10.313888333333 0 0
-0.000032275274 6.164123333249 0
-0.000008798030 -0.000000000046 5.040899999992
!End