&CONTROL
calculation = "scf"
etot_conv_thr = 1.0d-5
forc_conv_thr = 1.0d-4
pseudo_dir = '/opt/QEpot/SSSP_precision_pseudos/'
disk_io = 'none'
tprnfor = .true.
tstress = .true.
verbosity = 'high'
/
!controlend

&SYSTEM
ntyp = 4
occupations = 'smearing'
smearing = 'cold'
degauss =   7.3498618000d-03
ecutrho =   1.080d+03
ecutwfc =   1.000d+02
ibrav = 0
nat = 25
nosym = .false.
starting_magnetization(1) =   3.1250000000d-01
starting_magnetization(2) =   0.0000000000d+00
starting_magnetization(3) =   0.0000000000d+00
starting_magnetization(4) =   0.0000000000d+00
nspin = 2
!systemend
/

&ELECTRONS
conv_thr =   2.0000000000d-10
electron_maxstep = 1000
mixing_beta =   4.0000000000d-01
/
K_POINTS {automatic}
5 7 9 0 0 0
ATOMIC_SPECIES
Fe  55.845  Fe.pbe-spn-kjpaw_psl.0.2.1.UPF
Na  22.98977  Na_ONCV_PBE-1.0.oncvpsp.upf
O  15.9994  O.pbe-n-kjpaw_psl.0.1.UPF
P  30.973761  P.pbe-n-rrkjus_psl.1.0.0.UPF
ATOMIC_POSITIONS {angstrom}
Na 2.4583944015 0.1059170646 -0.1236419915
Fe 3.1675231182 3.7561184074 4.9566253877
Fe 1.891604411 1.5636819759 2.2787641783
Fe 7.4298067855 1.6017930362 0.3178428103
Fe 8.072038956 4.791482637 2.9149756918
P 1.0553101102 4.5938350133 2.4052639512
P 4.4315453558 1.794277148 3.8716798416
P 9.2047727946 1.5793803784 3.1017948424
P 6.1788666314 4.5911906627 0.5674276013
O 1.6611983392 4.4995494356 3.8381913572
O 3.6645582998 1.8933354981 0.3405137145
O 8.9253868208 1.546033559 1.5886664163
O 6.5537064532 4.678942867 4.0186286397
O 4.6288340061 4.8121706941 0.6970770624
O 0.3269590114 1.6502559431 3.4080701449
O 5.8660407514 1.323507957 4.0751754715
O 9.9325284257 4.4713800108 2.3704665586
O 1.4682226781 5.9287205978 1.7225012794
O 3.5766127299 0.8151989197 3.0085337512
O 8.4439449321 2.7460765421 3.831083795
O 6.6401748952 3.2213779273 1.1681490116
O 8.5866611239 0.319374284 3.8251742381
O 6.9897903686 5.6828378166 1.3644287502
O 1.7229459886 3.4259174079 1.5403780368
O 4.2073055225 3.2324122165 3.325215151
CELL_PARAMETERS {angstrom}
10.4063 0 0
0 6.2187 0
0 0 4.9469
!End