&CONTROL
calculation = "scf"
etot_conv_thr = 1.0d-5
forc_conv_thr = 1.0d-4
pseudo_dir = '/opt/QEpot/SSSP_precision_pseudos/'
disk_io = 'none'
tprnfor = .true.
tstress = .true.
verbosity = 'high'
/
!controlend

&SYSTEM
ntyp = 4
occupations = 'smearing'
smearing = 'cold'
degauss =   7.3498618000d-03
ecutrho =   1.080d+03
ecutwfc =   1.000d+02
ibrav = 0
nat = 25
nosym = .false.
starting_magnetization(1) =   3.1250000000d-01
starting_magnetization(2) =   0.0000000000d+00
starting_magnetization(3) =   0.0000000000d+00
starting_magnetization(4) =   0.0000000000d+00
nspin = 2
!systemend
/

&ELECTRONS
conv_thr =   2.0000000000d-10
electron_maxstep = 1000
mixing_beta =   4.0000000000d-01
/
K_POINTS {automatic}
5 7 9 0 0 0
ATOMIC_SPECIES
Fe  55.845  Fe.pbe-spn-kjpaw_psl.0.2.1.UPF
Na  22.98977  Na_ONCV_PBE-1.0.oncvpsp.upf
O  15.9994  O.pbe-n-kjpaw_psl.0.1.UPF
P  30.973761  P.pbe-n-rrkjus_psl.1.0.0.UPF
ATOMIC_POSITIONS {angstrom}
Na 0.0646492128 -0.4016339352 3.3297579552
Fe 3.1474225564 4.8033209979 4.1966701369
Fe 2.3171820032 2.1105243501 2.4630022751
Fe 7.298273816 1.4123981971 0.700222753
Fe 8.0530147492 4.1308904754 2.3869599608
P 0.9638957168 4.1539941559 1.301257905
P 4.1231559075 1.5640683323 4.6489802668
P 9.4370776066 2.1386305575 3.5491160648
P 6.2760768857 4.6578008168 0.2446007774
O 1.8424112013 4.2944002892 2.6200821973
O 3.7003132208 1.5691243778 1.1806280614
O 8.5365703326 2.0237677118 2.2510335043
O 6.694292128 4.6594261845 3.7140742849
O 4.7564720958 4.826292258 0.4059441444
O 0.5024433855 1.741599 3.2962402866
O 5.6445505382 1.3963854669 4.5076547285
O 9.9006773673 4.5604381241 1.5667070885
O 1.5426113539 5.1627231458 0.2680953773
O 3.3384515438 0.5016890297 3.7735591469
O 9.2198085141 3.6047728115 3.9859967886
O 6.7819550444 3.3559935666 1.0050038247
O 8.8562606926 1.0949488581 4.5500934902
O 7.0698673787 5.7134871222 1.122596388
O 1.2070955863 2.6883253061 0.8898959765
O 3.6017911625 2.8614008 3.8784233529
CELL_PARAMETERS {angstrom}
10.4063 0 0
0 6.2187 0
0 0 4.9469
!End