&CONTROL
calculation = "scf"
etot_conv_thr = 1.0d-5
forc_conv_thr = 1.0d-4
pseudo_dir = '/opt/QEpot/SSSP_precision_pseudos/'
disk_io = 'none'
tprnfor = .true.
tstress = .true.
verbosity = 'high'
/
!controlend

&SYSTEM
ntyp = 4
occupations = 'smearing'
smearing = 'cold'
degauss =   7.3498618000d-03
ecutrho = 1.080d+03
ecutwfc = 1.000d+02
ibrav = 0
nat = 25
nosym = .false.
starting_magnetization(1) =   3.1250000000d-01
starting_magnetization(2) =   0.0000000000d+00
starting_magnetization(3) =   0.0000000000d+00
starting_magnetization(4) =   0.0000000000d+00
nspin = 2
!systemend
/

&ELECTRONS
conv_thr =   2.0000000000d-10
electron_maxstep = 1000
mixing_beta =   4.0000000000d-01
/
K_POINTS {automatic}
5 7 9 0 0 0
ATOMIC_SPECIES
Fe  55.845  Fe.pbe-spn-kjpaw_psl.0.2.1.UPF
Na  22.98977  Na_ONCV_PBE-1.0.oncvpsp.upf
O  15.9994  O.pbe-n-kjpaw_psl.0.1.UPF
P  30.973761  P.pbe-n-rrkjus_psl.1.0.0.UPF
ATOMIC_POSITIONS {angstrom}
Na 0.067887058995 6.107918523525 3.4962463095
Fe 3.30479841321 5.043490074 4.406501386035
Fe 2.433040288665 2.21605364484 2.58615225456
Fe 7.66318475118 1.483017230835 0.73523499126
Fe 8.4556702839 4.337434111815 2.50630632042
P 1.01208864099 4.36169170584 1.366320176025
P 4.329310615455 1.64226849885 4.88142678912
P 9.90893193213 2.245561065405 3.72656952129
P 6.58988521296 4.890690085365 0.256829444025
O 1.93453533252 4.50911780487 2.751085116045
O 3.88532946816 1.64758362174 1.2396585117
O 8.963397303105 2.124958706955 2.363584050555
O 7.02900401658 4.8923943201 3.89977681506
O 4.99429347774 5.067604016055 0.4262397447
O 0.527569752045 1.82867651883 3.46105010538
O 5.926781728455 1.46620342071 4.73303759796
O 10.39571263038 4.788462119805 1.645043362725
O 1.61973955437 5.420857269555 0.281502107775
O 3.505378284765 0.52677177399 3.962237611185
O 9.680795137545 3.785013931545 4.18529407422
O 7.12104982134 3.52379588337 1.05525242571
O 9.29907384252 1.14969895299 4.777599025815
O 7.423356478545 5.999160922965 1.178724823605
O 1.267454560155 2.822741621595 0.93439273305
O 3.78187627734 3.00446789328 4.072345216695
CELL_PARAMETERS {angstrom}
10.926615 0 0
0 6.529635 0
0 0 5.194245
!End