&CONTROL
calculation = "scf"
etot_conv_thr = 1.0d-5
forc_conv_thr = 1.0d-4
pseudo_dir = '/opt/QEpot/SSSP_precision_pseudos/'
disk_io = 'none'
tprnfor = .true.
tstress = .true.
verbosity = 'high'
/
!controlend

&SYSTEM
ntyp = 4
occupations = 'smearing'
smearing = 'cold'
degauss =   7.3498618000d-03
ecutrho = 1.080d+03
ecutwfc = 1.000d+02
ibrav = 0
nat = 25
nosym = .false.
starting_magnetization(1) =   3.1250000000d-01
starting_magnetization(2) =   0.0000000000d+00
starting_magnetization(3) =   0.0000000000d+00
starting_magnetization(4) =   0.0000000000d+00
nspin = 2
!systemend
/

&ELECTRONS
conv_thr =   2.0000000000d-10
electron_maxstep = 1000
mixing_beta =   4.0000000000d-01
/
K_POINTS {automatic}
5 7 9 0 0 0
ATOMIC_SPECIES
Fe  55.845  Fe.pbe-spn-kjpaw_psl.0.2.1.UPF
Na  22.98977  Na_ONCV_PBE-1.0.oncvpsp.upf
O  15.9994  O.pbe-n-kjpaw_psl.0.1.UPF
P  30.973761  P.pbe-n-rrkjus_psl.1.0.0.UPF
ATOMIC_POSITIONS {angstrom}
Na 0.067887058995 5.8170652605 3.32975839
Fe 3.30479841321 4.80332388 4.1966679867
Fe 2.433040288665 2.1105272808 2.4630021472
Fe 7.66318475118 1.4123973627 0.7002238012
Fe 8.4556702839 4.1308896303 2.3869584004
P 1.01208864099 4.1539921008 1.3012573105
P 4.329310615455 1.564065237 4.6489778944
P 9.90893193213 2.1386295861 3.5491138298
P 6.58988521296 4.6578000813 0.2445994705
O 1.93453533252 4.2943979094 2.6200810629
O 3.88532946816 1.5691272588 1.180627154
O 8.963397303105 2.0237701971 2.2510324291
O 7.02900401658 4.659423162 3.7140731572
O 4.99429347774 4.8262895391 0.405942614
O 0.527569752045 1.7415966846 3.2962381956
O 5.926781728455 1.3963842102 4.5076548552
O 10.39571263038 4.5604401141 1.5667079645
O 1.61973955437 5.1627212091 0.2680972455
O 3.505378284765 0.5016874038 3.7735596297
O 9.680795137545 3.6047751729 3.9859943564
O 7.12104982134 3.3559960794 1.0050023102
O 9.29907384252 1.0949513838 4.5500943103
O 7.423356478545 5.7134865933 1.1225950701
O 1.267454560155 2.6883253539 0.889897841
O 3.78187627734 2.8613979936 3.8784240159
CELL_PARAMETERS {angstrom}
10.926615 0 0
0 6.2187 0
0 0 4.9469
!End