&CONTROL
calculation = "scf"
etot_conv_thr = 1.0d-5
forc_conv_thr = 1.0d-4
pseudo_dir = '/opt/QEpot/SSSP_precision_pseudos/'
disk_io = 'none'
tprnfor = .true.
tstress = .true.
verbosity = 'high'
/
!controlend

&SYSTEM
ntyp = 4
occupations = 'smearing'
smearing = 'cold'
degauss =   7.3498618000d-03
ecutrho = 1.080d+03
ecutwfc = 1.000d+02
ibrav = 0
nat = 25
nosym = .false.
starting_magnetization(1) =   3.1250000000d-01
starting_magnetization(2) =   0.0000000000d+00
starting_magnetization(3) =   0.0000000000d+00
starting_magnetization(4) =   0.0000000000d+00
nspin = 2
!systemend
/

&ELECTRONS
conv_thr =   2.0000000000d-10
electron_maxstep = 1000
mixing_beta =   4.0000000000d-01
/
K_POINTS {automatic}
5 7 9 0 0 0
ATOMIC_SPECIES
Fe  55.845  Fe.pbe-spn-kjpaw_psl.0.2.1.UPF
Na  22.98977  Na_ONCV_PBE-1.0.oncvpsp.upf
O  15.9994  O.pbe-n-kjpaw_psl.0.1.UPF
P  30.973761  P.pbe-n-rrkjus_psl.1.0.0.UPF
ATOMIC_POSITIONS {angstrom}
Na 0.06249919717 5.8170652605 3.32975839
Fe 3.04251282486 4.80332388 4.1966679867
Fe 2.239941853057 2.1105272808 2.4630021472
Fe 7.054995485213 1.4123973627 0.7002238012
Fe 7.784585340733 4.1308896303 2.3869584004
P 0.931764145673 4.1539921008 1.3012573105
P 3.985714534863 1.564065237 4.6489778944
P 9.122508762913 2.1386295861 3.5491138298
P 6.066878450027 4.6578000813 0.2445994705
O 1.78100078232 4.2943979094 2.6200810629
O 3.57696998656 1.5691272588 1.180627154
O 8.252016564763 2.0237701971 2.2510324291
O 6.471146554947 4.659423162 3.7140731572
O 4.597920979507 4.8262895391 0.405942614
O 0.485699136803 1.7415966846 3.2962381956
O 5.456402226197 1.3963842102 4.5076548552
O 9.570656072413 4.5604401141 1.5667079645
O 1.491188796087 5.1627212091 0.2680972455
O 3.22717365899 0.5016874038 3.7735596297
O 8.912478063137 3.6047751729 3.9859943564
O 6.555887137107 3.3559960794 1.0050023102
O 8.561052108987 1.0949513838 4.5500943103
O 6.83420120247 5.7134865933 1.1225950701
O 1.166862928397 2.6883253539 0.889897841
O 3.48172736644 2.8613979936 3.8784240159
CELL_PARAMETERS {angstrom}
10.059423333333 0 0
0 6.2187 0
0 0 4.9469
!End