&CONTROL
calculation = "scf"
etot_conv_thr = 1.0d-5
forc_conv_thr = 1.0d-4
pseudo_dir = '/opt/QEpot/SSSP_precision_pseudos/'
disk_io = 'none'
tprnfor = .true.
tstress = .true.
verbosity = 'high'
/
!controlend

&SYSTEM
ntyp = 4
occupations = 'smearing'
smearing = 'cold'
degauss =   7.3498618000d-03
ecutrho = 1.080d+03
ecutwfc = 1.000d+02
ibrav = 0
nat = 25
nosym = .false.
starting_magnetization(1) =   3.1250000000d-01
starting_magnetization(2) =   0.0000000000d+00
starting_magnetization(3) =   0.0000000000d+00
starting_magnetization(4) =   0.0000000000d+00
nspin = 2
!systemend
/

&ELECTRONS
conv_thr =   2.0000000000d-10
electron_maxstep = 1000
mixing_beta =   4.0000000000d-01
/
K_POINTS {automatic}
5 7 9 0 0 0
ATOMIC_SPECIES
Fe  55.845  Fe.pbe-spn-kjpaw_psl.0.2.1.UPF
Na  22.98977  Na_ONCV_PBE-1.0.oncvpsp.upf
O  15.9994  O.pbe-n-kjpaw_psl.0.1.UPF
P  30.973761  P.pbe-n-rrkjus_psl.1.0.0.UPF
ATOMIC_POSITIONS {angstrom}
Na 0.06249919717 5.62316308515 3.218766443667
Fe 3.04251282486 4.643213084 4.05677905381
Fe 2.239941853057 2.04017637144 2.380902075627
Fe 7.054995485213 1.36531745061 0.676883007827
Fe 7.784585340733 3.99319330929 2.307393120387
P 0.931764145673 4.01552569744 1.257882066817
P 3.985714534863 1.5119297291 4.494011964587
P 9.122508762913 2.06734193323 3.430810035473
P 6.066878450027 4.50254007859 0.236446154817
O 1.78100078232 4.15125131242 2.53274502747
O 3.57696998656 1.51682301684 1.141272915533
O 8.252016564763 1.95631119053 2.175998014797
O 6.471146554947 4.5041090566 3.590270718627
O 4.597920979507 4.66541322113 0.392411193533
O 0.485699136803 1.68354346178 3.18636358908
O 5.456402226197 1.34983806986 4.35739969336
O 9.570656072413 4.40842544363 1.514484365683
O 1.491188796087 4.99063050213 0.25916067065
O 3.22717365899 0.48496449034 3.64777430871
O 8.912478063137 3.48461600047 3.853127877853
O 6.555887137107 3.24412954342 0.971502233193
O 8.561052108987 1.05845300434 4.398424499957
O 6.83420120247 5.52303704019 1.08517523443
O 1.166862928397 2.59871450877 0.860234579633
O 3.48172736644 2.76601806048 3.74914321537
CELL_PARAMETERS {angstrom}
10.059423333333 0 0
0 6.01141 0
0 0 4.782003333333
!End