&CONTROL
calculation = "scf"
etot_conv_thr = 1.0d-5
forc_conv_thr = 1.0d-4
pseudo_dir = '/opt/QEpot/SSSP_precision_pseudos/'
disk_io = 'none'
tprnfor = .true.
tstress = .true.
verbosity = 'high'
/
!controlend

&SYSTEM
ntyp = 4
occupations = 'smearing'
smearing = 'cold'
degauss =   7.3498618000d-03
ecutrho = 1.080d+03
ecutwfc = 1.000d+02
ibrav = 0
nat = 25
nosym = .false.
starting_magnetization(1) =   3.1250000000d-01
starting_magnetization(2) =   0.0000000000d+00
starting_magnetization(3) =   0.0000000000d+00
starting_magnetization(4) =   0.0000000000d+00
nspin = 2
!systemend
/

&ELECTRONS
conv_thr =   2.0000000000d-10
electron_maxstep = 1000
mixing_beta =   4.0000000000d-01
/
K_POINTS {automatic}
5 7 9 0 0 0
ATOMIC_SPECIES
Fe  55.845  Fe.pbe-spn-kjpaw_psl.0.2.1.UPF
Na  22.98977  Na_ONCV_PBE-1.0.oncvpsp.upf
O  15.9994  O.pbe-n-kjpaw_psl.0.1.UPF
P  30.973761  P.pbe-n-rrkjus_psl.1.0.0.UPF
ATOMIC_POSITIONS {angstrom}
Na 0.065731914265 5.914016348175 3.32975839
Fe 3.19988417787 4.883379278 4.1966679867
Fe 2.355800914422 2.14570273548 2.4630021472
Fe 7.419909044793 1.435937318745 0.7002238012
Fe 8.187236306633 4.199737790805 2.3869584004
P 0.979958842863 4.22322530248 1.3012573105
P 4.191872183218 1.59013299095 4.6489778944
P 9.594362664443 2.174273412535 3.5491138298
P 6.380682507787 4.735430082655 0.2445994705
O 1.87312151244 4.36597120789 2.6200810629
O 3.76198567552 1.59527937978 1.180627154
O 8.678845007768 2.057499700385 2.2510324291
O 6.805861031927 4.7370802147 3.7140731572
O 4.835744478447 4.906727698085 0.405942614
O 0.510821505948 1.77062329601 3.2962381956
O 5.738629927552 1.41965728037 4.5076548552
O 10.065690007193 4.636447449335 1.5667079645
O 1.568319251057 5.248766562585 0.2680972455
O 3.394096434455 0.51004886053 3.7735596297
O 9.373468307782 3.664854759115 3.9859943564
O 6.894984747647 3.41192934739 1.0050023102
O 9.003865149107 1.11320057353 4.5500943103
O 7.187694368115 5.808711369855 1.1225950701
O 1.227217907452 2.733130776465 0.889897841
O 3.66181671298 2.90908796016 3.8784240159
CELL_PARAMETERS {angstrom}
10.579738333333 0 0
0 6.322345 0
0 0 4.9469
!End