&CONTROL
calculation = "scf"
etot_conv_thr = 1.0d-5
forc_conv_thr = 1.0d-4
pseudo_dir = '/opt/QEpot/SSSP_precision_pseudos/'
disk_io = 'none'
tprnfor = .true.
tstress = .true.
verbosity = 'high'
/
!controlend

&SYSTEM
ntyp = 4
occupations = 'smearing'
smearing = 'cold'
degauss =   7.3498618000d-03
ecutrho = 1.080d+03
ecutwfc = 1.000d+02
ibrav = 0
nat = 25
nosym = .false.
starting_magnetization(1) =   3.1250000000d-01
starting_magnetization(2) =   0.0000000000d+00
starting_magnetization(3) =   0.0000000000d+00
starting_magnetization(4) =   0.0000000000d+00
nspin = 2
!systemend
/

&ELECTRONS
conv_thr =   2.0000000000d-10
electron_maxstep = 1000
mixing_beta =   4.0000000000d-01
/
K_POINTS {automatic}
5 7 9 0 0 0
ATOMIC_SPECIES
Fe  55.845  Fe.pbe-spn-kjpaw_psl.0.2.1.UPF
Na  22.98977  Na_ONCV_PBE-1.0.oncvpsp.upf
O  15.9994  O.pbe-n-kjpaw_psl.0.1.UPF
P  30.973761  P.pbe-n-rrkjus_psl.1.0.0.UPF
ATOMIC_POSITIONS {angstrom}
Na 0.063576769535 5.720114172825 3.274262416833
Fe 3.09496994253 4.723268482 4.126723520255
Fe 2.278561540178 2.07535182612 2.421952111413
Fe 7.176633338407 1.388857406655 0.688553404513
Fe 7.918802329367 4.062041469795 2.347175760393
P 0.947829044737 4.08475889912 1.279569688658
P 4.054433750982 1.53799748305 4.571494929493
P 9.279793396757 2.102985759665 3.489961932637
P 6.171479802613 4.580170079945 0.240522812658
O 1.81170769236 4.22282461091 2.576413045185
O 3.63864188288 1.54297513782 1.160950034767
O 8.394292712432 1.990040693815 2.213515221948
O 6.582718047273 4.5817661093 3.652171937913
O 4.677195479153 4.745851380115 0.399176903767
O 0.494073259852 1.71257007319 3.24130089234
O 5.550478126648 1.37311114003 4.43252727428
O 9.735667384007 4.484432778865 1.540596165092
O 1.516898947743 5.076675855615 0.263628958075
O 3.282814584145 0.49332594707 3.710666969205
O 9.066141478018 3.544695586685 3.919561117127
O 6.668919673953 3.30006281141 0.988252271697
O 8.708656455693 1.07670219407 4.474259405128
O 6.952032257685 5.618261816745 1.103885152265
O 1.186981254748 2.643519931335 0.875066210317
O 3.54175714862 2.81370802704 3.813783615635
CELL_PARAMETERS {angstrom}
10.232861666667 0 0
0 6.115055 0
0 0 4.864451666667
!End