&CONTROL
calculation = "scf"
etot_conv_thr = 1.0d-5
forc_conv_thr = 1.0d-4
pseudo_dir = '/opt/QEpot/SSSP_precision_pseudos/'
disk_io = 'none'
tprnfor = .true.
tstress = .true.
verbosity = 'high'
/
!controlend

&SYSTEM
ntyp = 4
occupations = 'smearing'
smearing = 'cold'
degauss =   7.3498618000d-03
ecutrho = 1.080d+03
ecutwfc = 1.000d+02
ibrav = 0
nat = 25
nosym = .false.
starting_magnetization(1) =   3.1250000000d-01
starting_magnetization(2) =   0.0000000000d+00
starting_magnetization(3) =   0.0000000000d+00
starting_magnetization(4) =   0.0000000000d+00
nspin = 2
!systemend
/

&ELECTRONS
conv_thr =   2.0000000000d-10
electron_maxstep = 1000
mixing_beta =   4.0000000000d-01
/
K_POINTS {automatic}
5 7 9 0 0 0
ATOMIC_SPECIES
Fe  55.845  Fe.pbe-spn-kjpaw_psl.0.2.1.UPF
Na  22.98977  Na_ONCV_PBE-1.0.oncvpsp.upf
O  15.9994  O.pbe-n-kjpaw_psl.0.1.UPF
P  30.973761  P.pbe-n-rrkjus_psl.1.0.0.UPF
ATOMIC_POSITIONS {angstrom}
Na 0.06680948663 6.01096743585 3.32975839
Fe 3.25234129554 4.963434676 4.1966679867
Fe 2.394420601543 2.18087819016 2.4630021472
Fe 7.541546897987 1.45947727479 0.7002238012
Fe 8.321453295267 4.26858595131 2.3869584004
P 0.996023741927 4.29245850416 1.3012573105
P 4.260591399337 1.6162007449 4.6489778944
P 9.751647298287 2.20991723897 3.5491138298
P 6.485283860373 4.81306008401 0.2445994705
O 1.90382842248 4.43754450638 2.6200810629
O 3.82365757184 1.62143150076 1.180627154
O 8.821121155437 2.09122920367 2.2510324291
O 6.917432524253 4.8147372674 3.7140731572
O 4.915018978093 4.98716585707 0.405942614
O 0.519195628997 1.79964990742 3.2962381956
O 5.832705828003 1.44293035054 4.5076548552
O 10.230701318787 4.71245478457 1.5667079645
O 1.594029402713 5.33481191607 0.2680972455
O 3.44973735961 0.51841031726 3.7735596297
O 9.527131722663 3.72493434533 3.9859943564
O 7.008017284493 3.46786261538 1.0050023102
O 9.151469495813 1.13144976326 4.5500943103
O 7.30552542333 5.90393614641 1.1225950701
O 1.247336233803 2.77793619903 0.889897841
O 3.72184649516 2.95677792672 3.8784240159
CELL_PARAMETERS {angstrom}
10.753176666667 0 0
0 6.42599 0
0 0 4.9469
!End