&CONTROL
calculation = "scf"
etot_conv_thr = 1.0d-5
forc_conv_thr = 1.0d-4
pseudo_dir = '/opt/QEpot/SSSP_precision_pseudos/'
disk_io = 'none'
tprnfor = .true.
tstress = .true.
verbosity = 'high'
/
!controlend

&SYSTEM
ntyp = 4
occupations = 'smearing'
smearing = 'cold'
degauss =   7.3498618000d-03
ecutrho = 1.080d+03
ecutwfc = 1.000d+02
ibrav = 0
nat = 25
nosym = .false.
starting_magnetization(1) =   3.1250000000d-01
starting_magnetization(2) =   0.0000000000d+00
starting_magnetization(3) =   0.0000000000d+00
starting_magnetization(4) =   0.0000000000d+00
nspin = 2
!systemend
/

&ELECTRONS
conv_thr =   2.0000000000d-10
electron_maxstep = 1000
mixing_beta =   4.0000000000d-01
/
K_POINTS {automatic}
5 7 9 0 0 0
ATOMIC_SPECIES
Fe  55.845  Fe.pbe-spn-kjpaw_psl.0.2.1.UPF
Na  22.98977  Na_ONCV_PBE-1.0.oncvpsp.upf
O  15.9994  O.pbe-n-kjpaw_psl.0.1.UPF
P  30.973761  P.pbe-n-rrkjus_psl.1.0.0.UPF
ATOMIC_POSITIONS {angstrom}
Na 0.063576769535 5.720114172825 3.32975839
Fe 3.09496994253 4.723268482 4.1966679867
Fe 2.278561540178 2.07535182612 2.4630021472
Fe 7.176633338407 1.388857406655 0.7002238012
Fe 7.918802329367 4.062041469795 2.3869584004
P 0.947829044737 4.08475889912 1.3012573105
P 4.054433750982 1.53799748305 4.6489778944
P 9.279793396757 2.102985759665 3.5491138298
P 6.171479802613 4.580170079945 0.2445994705
O 1.81170769236 4.22282461091 2.6200810629
O 3.63864188288 1.54297513782 1.180627154
O 8.394292712432 1.990040693815 2.2510324291
O 6.582718047273 4.5817661093 3.7140731572
O 4.677195479153 4.745851380115 0.405942614
O 0.494073259852 1.71257007319 3.2962381956
O 5.550478126648 1.37311114003 4.5076548552
O 9.735667384007 4.484432778865 1.5667079645
O 1.516898947743 5.076675855615 0.2680972455
O 3.282814584145 0.49332594707 3.7735596297
O 9.066141478018 3.544695586685 3.9859943564
O 6.668919673953 3.30006281141 1.0050023102
O 8.708656455693 1.07670219407 4.5500943103
O 6.952032257685 5.618261816745 1.1225950701
O 1.186981254748 2.643519931335 0.889897841
O 3.54175714862 2.81370802704 3.8784240159
CELL_PARAMETERS {angstrom}
10.232861666667 0 0
0 6.115055 0
0 0 4.9469
!End