&CONTROL
calculation = "scf"
etot_conv_thr = 1.0d-5
forc_conv_thr = 1.0d-4
pseudo_dir = '/opt/QEpot/SSSP_precision_pseudos/'
disk_io = 'none'
tprnfor = .true.
tstress = .true.
verbosity = 'high'
/
!controlend

&SYSTEM
ntyp = 4
occupations = 'smearing'
smearing = 'cold'
degauss =   7.3498618000d-03
ecutrho =   1.080d+03
ecutwfc =   1.000d+02
ibrav = 0
nat = 25
nosym = .false.
starting_magnetization(1) =   3.1250000000d-01
starting_magnetization(2) =   0.0000000000d+00
starting_magnetization(3) =   0.0000000000d+00
starting_magnetization(4) =   0.0000000000d+00
nspin = 2
!systemend
/

&ELECTRONS
conv_thr =   2.0000000000d-10
electron_maxstep = 1000
mixing_beta =   4.0000000000d-01
/
K_POINTS {automatic}
5 7 9 0 0 0
ATOMIC_SPECIES
Fe  55.845  Fe.pbe-spn-kjpaw_psl.0.2.1.UPF
Na  22.98977  Na_ONCV_PBE-1.0.oncvpsp.upf
O  15.9994  O.pbe-n-kjpaw_psl.0.1.UPF
P  30.973761  P.pbe-n-rrkjus_psl.1.0.0.UPF
ATOMIC_POSITIONS {angstrom}
Na 0.0953681795 0.6447152987 0.876386379
Fe 3.1291022663 4.7857903189 4.3532024125
Fe 2.2610750904 2.0751742222 2.6246583896
Fe 7.2983780731 1.4311724654 0.7043771203
Fe 8.1418042545 4.3353328537 2.5629637228
P 0.9539389366 4.206874481 1.5499601917
P 4.0816639119 1.5565633002 4.7751458294
P 9.4028551451 1.8600442071 3.4157444733
P 6.3149335327 4.6543794673 0.3951687437
O 1.7857502162 4.1601146512 2.8890736192
O 3.5997686437 1.5585626577 1.2872143156
O 8.7359914238 1.6968701227 2.0270414583
O 6.7478916244 4.6778233177 3.8680678544
O 4.7863509438 4.7491173337 0.5209080719
O 0.4960844959 1.4158803963 3.3492966307
O 5.6084108394 1.4392026433 4.664614765
O 9.9208821483 4.7458071492 1.7156037612
O 1.6800478106 5.2086153294 0.6017422796
O 3.353920618 0.4671585009 3.8912788146
O 9.1908841542 3.3146577012 3.8944501762
O 6.9153273874 3.3958727689 1.1678461987
O 8.6889583402 0.8874305268 4.403732482
O 7.0321926544 5.7684536679 1.2609161121
O 1.0839501979 2.7506412141 1.0426461749
O 3.5707891118 2.8385134048 3.9933787581
CELL_PARAMETERS {angstrom}
10.4063 0 0
0 6.2187 0
0 0 4.9469
!End