&CONTROL
calculation = "scf"
etot_conv_thr = 1.0d-5
forc_conv_thr = 1.0d-4
pseudo_dir = '/opt/QEpot/SSSP_precision_pseudos/'
disk_io = 'none'
tprnfor = .true.
tstress = .true.
verbosity = 'high'
/
!controlend

&SYSTEM
ntyp = 4
occupations = 'smearing'
smearing = 'cold'
degauss =   7.3498618000d-03
ecutrho = 1.080d+03
ecutwfc = 1.000d+02
ibrav = 0
nat = 25
nosym = .false.
starting_magnetization(1) =   3.1250000000d-01
starting_magnetization(2) =   0.0000000000d+00
starting_magnetization(3) =   0.0000000000d+00
starting_magnetization(4) =   0.0000000000d+00
nspin = 2
!systemend
/

&ELECTRONS
conv_thr =   2.0000000000d-10
electron_maxstep = 1000
mixing_beta =   4.0000000000d-01
/
K_POINTS {automatic}
5 7 9 0 0 0
ATOMIC_SPECIES
Fe     55.845 Fe.pbe-spn-kjpaw_psl.0.2.1.UPF
Na     22.98977 Na_ONCV_PBE-1.0.oncvpsp.upf
O      15.9994 O.pbe-n-kjpaw_psl.0.1.UPF
P      30.973761 P.pbe-n-rrkjus_psl.1.0.0.UPF
ATOMIC_POSITIONS {angstrom}
Na 0.092184555427 0.6447175038 0.8763878571
Fe 3.02479818037 4.7857933647 4.3532027434
Fe 2.185701442443 2.0751739713 2.6246569454
Fe 7.055096079447 1.431171618 0.7043791972
Fe 7.870412340613 4.3353356115 2.5629641555
P 0.922137277543 4.2068759256 1.5499577611
P 3.945607614033 1.5565654848 4.775143632
P 9.08942331957 1.8600442635 3.4157454058
P 6.104440336753 4.6543797963 0.3951682658
O 1.72622722227 4.1601175203 2.8890736973
O 3.479775838313 1.5585616875 1.2872130614
O 8.444795353523 1.6968717942 2.027041744
O 6.522962644537 4.6778242953 3.8680701542
O 4.626801583897 4.7491154721 0.52090857
O 0.479552829147 1.4158798347 3.349298645
O 5.42146584896 1.4391999597 4.6646150453
O 9.590181413103 4.7458071237 1.7156047076
O 1.62404360005 5.2086152151 0.601740916
O 3.242121962063 0.4671611814 3.891281009
O 8.884522925693 3.3146603805 3.8944519719
O 6.68481876597 3.3958703838 1.1678443644
O 8.399326760057 0.8874333648 4.40373038
O 6.797786090003 5.7684536826 1.260915341
O 1.04781971267 2.7506429466 1.0426482192
O 3.45176034433 2.8385131776 3.9933800781
CELL_PARAMETERS {angstrom}
10.059423333333 0 0
0 6.2187 0
0 0 4.9469
!End