&CONTROL
calculation = "scf"
etot_conv_thr = 1.0d-5
forc_conv_thr = 1.0d-4
pseudo_dir = '/opt/QEpot/SSSP_precision_pseudos/'
disk_io = 'none'
tprnfor = .true.
tstress = .true.
verbosity = 'high'
/
!controlend

&SYSTEM
ntyp = 4
occupations = 'smearing'
smearing = 'cold'
degauss =   7.3498618000d-03
ecutrho = 1.080d+03
ecutwfc = 1.000d+02
ibrav = 0
nat = 25
nosym = .false.
starting_magnetization(1) =   3.1250000000d-01
starting_magnetization(2) =   0.0000000000d+00
starting_magnetization(3) =   0.0000000000d+00
starting_magnetization(4) =   0.0000000000d+00
nspin = 2
!systemend
/

&ELECTRONS
conv_thr =   2.0000000000d-10
electron_maxstep = 1000
mixing_beta =   4.0000000000d-01
/
K_POINTS {automatic}
5 7 9 0 0 0
ATOMIC_SPECIES
Fe     55.845 Fe.pbe-spn-kjpaw_psl.0.2.1.UPF
Na     22.98977 Na_ONCV_PBE-1.0.oncvpsp.upf
O      15.9994 O.pbe-n-kjpaw_psl.0.1.UPF
P      30.973761 P.pbe-n-rrkjus_psl.1.0.0.UPF
ATOMIC_POSITIONS {angstrom}
Na 0.092184555427 0.62322692034 0.84717492853
Fe 3.02479818037 4.62626691921 4.208095985287
Fe 2.185701442443 2.00600150559 2.537168380553
Fe 7.055096079447 1.3834658974 0.680899890627
Fe 7.870412340613 4.19082442445 2.477532016983
P 0.922137277543 4.06664672808 1.498292502397
P 3.945607614033 1.50467996864 4.6159721776
P 9.08942331957 1.79804278805 3.301887225607
P 6.104440336753 4.49923380309 0.381995990273
O 1.72622722227 4.02144693629 2.792771240723
O 3.479775838313 1.50660963125 1.244305959353
O 8.444795353523 1.64030940106 1.959473685867
O 6.522962644537 4.52189681879 3.739134482393
O 4.626801583897 4.59081162303 0.503544951
O 0.479552829147 1.36868384021 3.237655356833
O 5.42146584896 1.39122662771 4.509127877123
O 9.590181413103 4.58761355291 1.658417884013
O 1.62404360005 5.03499470793 0.581682885467
O 3.242121962063 0.45158914202 3.761571642033
O 8.884522925693 3.20417170115 3.76463690617
O 6.68481876597 3.28267470434 1.12891621892
O 8.399326760057 0.85785225264 4.256939367333
O 6.797786090003 5.57617189318 1.218884829633
O 1.04781971267 2.65895484838 1.00789327856
O 3.45176034433 2.74389607168 3.86026740883
CELL_PARAMETERS {angstrom}
10.059423333333 0 0
0 6.01141 0
0 0 4.782003333333
!End