&CONTROL
calculation = "scf"
etot_conv_thr = 1.0d-5
forc_conv_thr = 1.0d-4
pseudo_dir = '/opt/QEpot/SSSP_precision_pseudos/'
disk_io = 'none'
tprnfor = .true.
tstress = .true.
verbosity = 'high'
/
!controlend

&SYSTEM
ntyp = 4
occupations = 'smearing'
smearing = 'cold'
degauss =   7.3498618000d-03
ecutrho = 1.080d+03
ecutwfc = 1.000d+02
ibrav = 0
nat = 25
nosym = .false.
starting_magnetization(1) =   3.1250000000d-01
starting_magnetization(2) =   0.0000000000d+00
starting_magnetization(3) =   0.0000000000d+00
starting_magnetization(4) =   0.0000000000d+00
nspin = 2
!systemend
/

&ELECTRONS
conv_thr =   2.0000000000d-10
electron_maxstep = 1000
mixing_beta =   4.0000000000d-01
/
K_POINTS {automatic}
5 7 9 0 0 0
ATOMIC_SPECIES
Fe     55.845 Fe.pbe-spn-kjpaw_psl.0.2.1.UPF
Na     22.98977 Na_ONCV_PBE-1.0.oncvpsp.upf
O      15.9994 O.pbe-n-kjpaw_psl.0.1.UPF
P      30.973761 P.pbe-n-rrkjus_psl.1.0.0.UPF
ATOMIC_POSITIONS {angstrom}
Na 0.098542110973 0.66620808726 0.90560078567
Fe 3.23340495143 4.94531981019 4.498309501513
Fe 2.336439472957 2.14434643701 2.712145510247
Fe 7.541654429753 1.4788773386 0.727858503773
Fe 8.413199398587 4.47984679855 2.648396294017
P 0.985732951857 4.34710512312 1.601623019803
P 4.217718483967 1.60845100096 4.9343150864
P 9.71628010023 1.92204573895 3.529603585993
P 6.525436222047 4.80952578951 0.408340541327
O 1.84527737553 4.29878810431 2.985376153877
O 3.719760378887 1.61051374375 1.330120163447
O 9.027195033077 1.75343418734 2.094609802133
O 6.972822137263 4.83375177181 3.997005826007
O 4.945891348303 4.90741932117 0.538272189
O 0.512625438053 1.46307582919 3.460941933167
O 5.79536004544 1.48717329169 4.820102213477
O 10.251573234697 4.90400069449 1.772791531187
O 1.73604660695 5.38223572227 0.621798946533
O 3.465716580137 0.48273322078 4.020990375967
O 9.497248644707 3.42514905985 4.02426703763
O 7.14584074983 3.50906606326 1.20677250988
O 8.978590674543 0.91701447696 4.550521392667
O 7.266598923797 5.96073547202 1.302945852367
O 1.12008314113 2.84233104482 1.07740315984
O 3.68981278187 2.93313028352 4.12649274737
CELL_PARAMETERS {angstrom}
10.753176666667 0 0
0 6.42599 0
0 0 5.111796666667
!End