&CONTROL
calculation = "scf"
etot_conv_thr = 1.0d-5
forc_conv_thr = 1.0d-4
pseudo_dir = '/opt/QEpot/SSSP_precision_pseudos/'
disk_io = 'none'
tprnfor = .true.
tstress = .true.
verbosity = 'high'
/
!controlend

&SYSTEM
ntyp = 4
occupations = 'smearing'
smearing = 'cold'
degauss =   7.3498618000d-03
ecutrho = 1.080d+03
ecutwfc = 1.000d+02
ibrav = 0
nat = 25
nosym = .false.
starting_magnetization(1) =   3.1250000000d-01
starting_magnetization(2) =   0.0000000000d+00
starting_magnetization(3) =   0.0000000000d+00
starting_magnetization(4) =   0.0000000000d+00
nspin = 2
!systemend
/

&ELECTRONS
conv_thr =   2.0000000000d-10
electron_maxstep = 1000
mixing_beta =   4.0000000000d-01
/
K_POINTS {automatic}
5 7 9 0 0 0
ATOMIC_SPECIES
Fe     55.845 Fe.pbe-spn-kjpaw_psl.0.2.1.UPF
Na     22.98977 Na_ONCV_PBE-1.0.oncvpsp.upf
O      15.9994 O.pbe-n-kjpaw_psl.0.1.UPF
P      30.973761 P.pbe-n-rrkjus_psl.1.0.0.UPF
ATOMIC_POSITIONS {angstrom}
Na 0.093773944313 0.63397221207 0.8763878571
Fe 3.076949873135 4.706030141955 4.3532027434
Fe 2.223385950072 2.040587738445 2.6246569454
Fe 7.176735667023 1.4073187577 0.7043791972
Fe 8.006109105107 4.263080017975 2.5629641555
P 0.938036196122 4.13676132684 1.5499577611
P 4.013635331517 1.53062272672 4.775143632
P 9.246137514735 1.829043525775 3.4157454058
P 6.209689308077 4.576806799695 0.3951682658
O 1.755989760585 4.090782228295 2.8890736973
O 3.539771973457 1.532585659375 1.2872130614
O 8.590395273412 1.66859059763 2.027041744
O 6.635427517718 4.599860557045 3.8680701542
O 4.706574024998 4.669963547565 0.52090857
O 0.487820981373 1.392281837455 3.349298645
O 5.51493939808 1.415213293705 4.6646150453
O 9.755529368502 4.666710338305 1.7156047076
O 1.652044351775 5.121804961515 0.601740916
O 3.298020616582 0.45937516171 3.891281009
O 9.037704355447 3.259416040825 3.8944519719
O 6.800074261935 3.33927254407 1.1678443644
O 8.544142738678 0.87264280872 4.40373038
O 6.914989298452 5.67231278789 1.260915341
O 1.065885569785 2.70479889749 1.0426482192
O 3.511273453715 2.79120462464 3.9933800781
CELL_PARAMETERS {angstrom}
10.232861666667 0 0
0 6.115055 0
0 0 4.9469
!End