&CONTROL
calculation = "scf"
etot_conv_thr = 1.0d-5
forc_conv_thr = 1.0d-4
pseudo_dir = '/opt/QEpot/SSSP_precision_pseudos/'
disk_io = 'none'
tprnfor = .true.
tstress = .true.
verbosity = 'high'
/
!controlend

&SYSTEM
ntyp = 4
occupations = 'smearing'
smearing = 'cold'
degauss =   7.3498618000d-03
ecutrho = 1.080d+03
ecutwfc = 1.000d+02
ibrav = 0
nat = 25
nosym = .false.
starting_magnetization(1) =   3.1250000000d-01
starting_magnetization(2) =   0.0000000000d+00
starting_magnetization(3) =   0.0000000000d+00
starting_magnetization(4) =   0.0000000000d+00
nspin = 2
!systemend
/

&ELECTRONS
conv_thr =   2.0000000000d-10
electron_maxstep = 1000
mixing_beta =   4.0000000000d-01
/
K_POINTS {automatic}
5 7 9 0 0 0
ATOMIC_SPECIES
Fe     55.845 Fe.pbe-spn-kjpaw_psl.0.2.1.UPF
Na     22.98977 Na_ONCV_PBE-1.0.oncvpsp.upf
O      15.9994 O.pbe-n-kjpaw_psl.0.1.UPF
P      30.973761 P.pbe-n-rrkjus_psl.1.0.0.UPF
ATOMIC_POSITIONS {angstrom}
Na 0.098542110973 0.6447175038 0.8763878571
Fe 3.23340495143 4.7857933647 4.3532027434
Fe 2.336439472957 2.0751739713 2.6246569454
Fe 7.541654429753 1.431171618 0.7043791972
Fe 8.413199398587 4.3353356115 2.5629641555
P 0.985732951857 4.2068759256 1.5499577611
P 4.217718483967 1.5565654848 4.775143632
P 9.71628010023 1.8600442635 3.4157454058
P 6.525436222047 4.6543797963 0.3951682658
O 1.84527737553 4.1601175203 2.8890736973
O 3.719760378887 1.5585616875 1.2872130614
O 9.027195033077 1.6968717942 2.027041744
O 6.972822137263 4.6778242953 3.8680701542
O 4.945891348303 4.7491154721 0.52090857
O 0.512625438053 1.4158798347 3.349298645
O 5.79536004544 1.4391999597 4.6646150453
O 10.251573234697 4.7458071237 1.7156047076
O 1.73604660695 5.2086152151 0.601740916
O 3.465716580137 0.4671611814 3.891281009
O 9.497248644707 3.3146603805 3.8944519719
O 7.14584074983 3.3958703838 1.1678443644
O 8.978590674543 0.8874333648 4.40373038
O 7.266598923797 5.7684536826 1.260915341
O 1.12008314113 2.7506429466 1.0426482192
O 3.68981278187 2.8385131776 3.9933800781
CELL_PARAMETERS {angstrom}
10.753176666667 0 0
0 6.2187 0
0 0 4.9469
!End