&CONTROL
calculation = "scf"
etot_conv_thr = 1.0d-5
forc_conv_thr = 1.0d-4
pseudo_dir = '/opt/QEpot/SSSP_precision_pseudos/'
disk_io = 'none'
tprnfor = .true.
tstress = .true.
verbosity = 'high'
/
!controlend

&SYSTEM
ntyp = 4
occupations = 'smearing'
smearing = 'cold'
degauss =   7.3498618000d-03
ecutrho = 1.080d+03
ecutwfc = 1.000d+02
ibrav = 0
nat = 25
nosym = .false.
starting_magnetization(1) =   3.1250000000d-01
starting_magnetization(2) =   0.0000000000d+00
starting_magnetization(3) =   0.0000000000d+00
starting_magnetization(4) =   0.0000000000d+00
nspin = 2
!systemend
/

&ELECTRONS
conv_thr =   2.0000000000d-10
electron_maxstep = 1000
mixing_beta =   4.0000000000d-01
/
K_POINTS {automatic}
5 7 9 0 0 0
ATOMIC_SPECIES
Fe     55.845 Fe.pbe-spn-kjpaw_psl.0.2.1.UPF
Na     22.98977 Na_ONCV_PBE-1.0.oncvpsp.upf
O      15.9994 O.pbe-n-kjpaw_psl.0.1.UPF
P      30.973761 P.pbe-n-rrkjus_psl.1.0.0.UPF
ATOMIC_POSITIONS {angstrom}
Na 0.10013149986 0.67695337899 0.8763878571
Fe 3.285556644195 5.025083032935 4.3532027434
Fe 2.374123980585 2.178932669865 2.6246569454
Fe 7.66329401733 1.5027301989 0.7043791972
Fe 8.54889616308 4.552102392075 2.5629641555
P 1.001631870435 4.41721972188 1.5499577611
P 4.28574620145 1.63439375904 4.775143632
P 9.872994295395 1.953046476675 3.4157454058
P 6.63068519337 4.887098786115 0.3951682658
O 1.875039913845 4.368123396315 2.8890736973
O 3.77975651403 1.636489771875 1.2872130614
O 9.172794952965 1.78171538391 2.027041744
O 7.085287010445 4.911715510065 3.8680701542
O 5.025663789405 4.986571245705 0.52090857
O 0.52089359028 1.486673826435 3.349298645
O 5.88883359456 1.511159957685 4.6646150453
O 10.416921190095 4.983097479885 1.7156047076
O 1.764047358675 5.469045975855 0.601740916
O 3.521615234655 0.49051924047 3.891281009
O 9.65043007446 3.480393399525 3.8944519719
O 7.261096245795 3.56566390299 1.1678443644
O 9.123406653165 0.93180503304 4.40373038
O 7.383802132245 6.05687636673 1.260915341
O 1.138148998245 2.88817509393 1.0426482192
O 3.749325891255 2.98043883648 3.9933800781
CELL_PARAMETERS {angstrom}
10.926615 0 0
0 6.529635 0
0 0 4.9469
!End