&CONTROL
calculation = "scf"
etot_conv_thr =   1.0000000000d-05
forc_conv_thr =   1.0000000000d-04
prefix = 'aiida'
pseudo_dir = '/opt/QEpot/SSSP_precision_pseudos/'
tprnfor = .true.
tstress = .true.
verbosity = 'high'
disk_io = 'none'
/
&SYSTEM
degauss =   2.2049585400d-02
ecutrho = 4.4000000000d+02
ecutwfc = 8.0000000000d+01
ibrav = 0
nat = 4
nosym = .false.
ntyp = 2
occupations = 'smearing'
smearing = 'cold'
/
&ELECTRONS
conv_thr =   2.0000000000d-10
electron_maxstep = 80
mixing_beta =   4.0000000000d-01
/
K_POINTS {automatic}
10 10 3 0 0 0
ATOMIC_SPECIES
B  10.81  B_pbe_v1.01.uspp.F.UPF
N  14.007  N.oncvpsp.upf
ATOMIC_POSITIONS {angstrom}
B 0.00718093105 1.496887484919 2.075861100812
B 1.30484352637 0.747681636193 6.209761100812
N -1.29047777129 2.246091086031 2.075861100812
N -1.29047777129 2.246091086031 6.209761100812
CELL_PARAMETERS {angstrom}
2.59532 0 0
-1.297660000000 2.24761305095 0
0.000000000000 0.000000000000 8.2678
!End