&CONTROL
calculation = "scf"
etot_conv_thr =   1.0000000000d-05
forc_conv_thr =   1.0000000000d-04
prefix = 'aiida'
pseudo_dir = '/opt/QEpot/SSSP_precision_pseudos/'
tprnfor = .true.
tstress = .true.
verbosity = 'high'
disk_io = 'none'
/
&SYSTEM
degauss =   2.2049585400d-02
ecutrho = 4.4000000000d+02
ecutwfc = 8.0000000000d+01
ibrav = 0
nat = 4
nosym = .false.
ntyp = 2
occupations = 'smearing'
smearing = 'cold'
/
&ELECTRONS
conv_thr =   2.0000000000d-10
electron_maxstep = 80
mixing_beta =   4.0000000000d-01
/
K_POINTS {automatic}
10 10 3 0 0 0
ATOMIC_SPECIES
B  10.81  B_pbe_v1.01.uspp.F.UPF
N  14.007  N.oncvpsp.upf
ATOMIC_POSITIONS {angstrom}
B -0.002916836525 1.516106939515 2.067672027877
B 1.315675800655 0.754817125488 6.201572027877
N 1.315674482065 2.277394469677 2.067672027877
N 1.315674482065 2.277394469677 6.201572027877
CELL_PARAMETERS {angstrom}
2.63718 0 0
-1.318590000000 2.283864874352 0
0.000000000000 0.000000000000 8.2678
!End