&CONTROL
calculation = "scf"
etot_conv_thr = 1.0d-5
forc_conv_thr = 1.0d-4
pseudo_dir = '/opt/QEpot/SSSP_precision_pseudos/'
disk_io = 'none'
tprnfor = .true.
tstress = .true.
verbosity = 'high'
/
!controlend

&SYSTEM
ntyp = 4
occupations = 'smearing'
smearing = 'cold'
degauss =   7.3498618000d-03
ecutrho =   1.080d+03
ecutwfc =   1.000d+02
ibrav = 0
nat = 25
nosym = .false.
starting_magnetization(1) =   3.1250000000d-01
starting_magnetization(2) =   0.0000000000d+00
starting_magnetization(3) =   0.0000000000d+00
starting_magnetization(4) =   0.0000000000d+00
nspin = 2
!systemend
/

&ELECTRONS
conv_thr =   2.0000000000d-10
electron_maxstep = 1000
mixing_beta =   4.0000000000d-01
/
K_POINTS {automatic}
5 7 9 0 0 0
ATOMIC_SPECIES
Fe  55.845  Fe.pbe-spn-kjpaw_psl.0.2.1.UPF
Na  22.98977  Na_ONCV_PBE-1.0.oncvpsp.upf
O  15.9994  O.pbe-n-kjpaw_psl.0.1.UPF
P  30.973761  P.pbe-n-rrkjus_psl.1.0.0.UPF
ATOMIC_POSITIONS {angstrom}
Na -0.1205392966 -0.4752823976 4.5130274025
Fe 3.0586100859 4.7815988743 4.4693285187
Fe 2.2657895642 1.7111969868 2.3657271822
Fe 7.374532517 1.4676718832 0.3326199767
Fe 8.1157738458 4.44835878 2.3601338768
P 1.0533834338 4.5120439162 1.8238292465
P 4.0844002293 1.5925097166 4.5460827516
P 9.3827378582 1.7833001886 2.9784087508
P 6.3264198999 4.6568770706 0.2022195477
O 1.4742251108 4.6554139793 3.3010648525
O 3.696958104 1.5492618811 1.0853288819
O 8.9347981191 1.6752302862 1.5049167584
O 6.7082936524 4.6814203624 3.6636775268
O 4.8015299128 4.6778505669 0.3898034023
O 0.4666256939 1.3556752837 3.1567956062
O 5.6143813597 1.581512254 4.3859561928
O 9.9481455219 4.8856700911 1.6558798137
O 1.8642167003 5.5319780752 0.9426923806
O 3.4080932662 0.4071817463 3.7359458783
O 9.0863850544 3.1978490741 3.5537879845
O 6.9944214864 3.4296610013 0.963779729
O 8.5164855671 0.7763728197 3.8284248306
O 7.0291647881 5.8258961995 1.0087223934
O 1.3963924367 3.1055536929 1.2778086586
O 3.3950950887 2.8099656674 3.7889110333
CELL_PARAMETERS {angstrom}
10.4063 0 0
0 6.2187 0
0 0 4.9469
!End