&CONTROL
calculation = "scf"
etot_conv_thr = 1.0d-5
forc_conv_thr = 1.0d-4
pseudo_dir = '/opt/QEpot/SSSP_precision_pseudos/'
disk_io = 'none'
tprnfor = .true.
tstress = .true.
verbosity = 'high'
/
!controlend

&SYSTEM
ntyp = 4
occupations = 'smearing'
smearing = 'cold'
degauss =   7.3498618000d-03
ecutrho = 1.080d+03
ecutwfc = 1.000d+02
ibrav = 0
nat = 25
nosym = .false.
starting_magnetization(1) =   3.1250000000d-01
starting_magnetization(2) =   0.0000000000d+00
starting_magnetization(3) =   0.0000000000d+00
starting_magnetization(4) =   0.0000000000d+00
nspin = 2
!systemend
/

&ELECTRONS
conv_thr =   2.0000000000d-10
electron_maxstep = 1000
mixing_beta =   4.0000000000d-01
/
K_POINTS {automatic}
5 7 9 0 0 0
ATOMIC_SPECIES
Fe  55.845  Fe.pbe-spn-kjpaw_psl.0.2.1.UPF
Na  22.98977  Na_ONCV_PBE-1.0.oncvpsp.upf
O  15.9994  O.pbe-n-kjpaw_psl.0.1.UPF
P  30.973761  P.pbe-n-rrkjus_psl.1.0.0.UPF
ATOMIC_POSITIONS {angstrom}
Na 10.457193224218 5.83914081634 4.58824430841
Fe 3.109586111195 4.861295326915 4.543815045233
Fe 2.303547586793 1.73971967365 2.40515507736
Fe 7.4974373673 1.492130321105 0.338163323237
Fe 8.251032128783 4.5224998254 2.399471913743
P 1.07094459253 4.587246960545 1.854225172882
P 4.152473237665 1.61905139698 4.621850413973
P 9.539115270867 1.81302094158 3.02804992714
P 6.431856702105 4.734494375595 0.20558970117
O 1.498799790468 4.733002302175 3.356084142833
O 3.758578999777 1.57508580985 1.10341890694
O 9.083710434308 1.70315123017 1.529998173877
O 6.820101359723 4.759442348965 3.724740405015
O 4.88155474543 4.755813322935 0.39630258997
O 0.474406046605 1.37827121 3.20940822804
O 5.707959266123 1.60787349102 4.459055437772
O 10.113944193732 4.96709977049 1.683478796965
O 1.895286064248 5.624174763995 0.958402677097
O 3.464896043382 0.413968183565 3.798214154817
O 9.23782548261 3.251145791695 3.613018461138
O 7.110991265198 3.48682384626 0.979842789042
O 8.658426112785 0.789313161525 3.89223279256
O 7.146317011493 5.922994078075 1.02553441865
O 1.419663347735 3.15731586955 1.299105821242
O 3.451681950203 2.856795844665 3.852058358073
CELL_PARAMETERS {angstrom}
10.579738333333 0 0
0 6.322345 0
0 0 5.029348333333
!End