&CONTROL
calculation = "scf"
etot_conv_thr = 1.0d-5
forc_conv_thr = 1.0d-4
pseudo_dir = '/opt/QEpot/SSSP_precision_pseudos/'
disk_io = 'none'
tprnfor = .true.
tstress = .true.
verbosity = 'high'
/
!controlend

&SYSTEM
ntyp = 4
occupations = 'smearing'
smearing = 'cold'
degauss =   7.3498618000d-03
ecutrho = 1.080d+03
ecutwfc = 1.000d+02
ibrav = 0
nat = 25
nosym = .false.
starting_magnetization(1) =   3.1250000000d-01
starting_magnetization(2) =   0.0000000000d+00
starting_magnetization(3) =   0.0000000000d+00
starting_magnetization(4) =   0.0000000000d+00
nspin = 2
!systemend
/

&ELECTRONS
conv_thr =   2.0000000000d-10
electron_maxstep = 1000
mixing_beta =   4.0000000000d-01
/
K_POINTS {automatic}
5 7 9 0 0 0
ATOMIC_SPECIES
Fe  55.845  Fe.pbe-spn-kjpaw_psl.0.2.1.UPF
Na  22.98977  Na_ONCV_PBE-1.0.oncvpsp.upf
O  15.9994  O.pbe-n-kjpaw_psl.0.1.UPF
P  30.973761  P.pbe-n-rrkjus_psl.1.0.0.UPF
ATOMIC_POSITIONS {angstrom}
Na 10.628622621337 5.93486443628 4.66346142822
Fe 3.16056293269 4.94098869293 4.618303816467
Fe 2.341310661987 1.7682396683 2.44458384912
Fe 7.6203461766 1.51659147391 0.343706984273
Fe 8.386294950567 4.5966391668 2.438807518887
P 1.08850106126 4.66244773039 1.884622306863
P 4.22054656943 1.64559322316 4.697618453547
P 9.695494209733 1.84274259636 3.07769008988
P 6.53729697591 4.81210903749 0.20896002414
O 1.523370278837 4.81059250385 3.411101915667
O 3.820195048953 1.6009068887 1.12150774148
O 9.232623720117 1.73107174214 1.555080111153
O 6.931906300047 4.83746599403 3.78580172313
O 4.96158023306 4.83377747577 0.40279935374
O 0.48218319491 1.40086582 3.26202147768
O 5.801532368847 1.63423207284 4.532154707243
O 10.279746557563 5.04852763558 1.71107681003
O 1.926356327597 5.71637435029 0.974114196393
O 3.521697617863 0.42075454723 3.860479960633
O 9.38926524462 3.30444326369 3.672248271977
O 7.227564892497 3.54398489292 0.995905785583
O 8.80036752447 0.80225272155 3.95603988752
O 7.263469749387 6.02009234165 1.0423464583
O 1.44293651737 3.2090751461 1.320402637983
O 3.508266900207 2.90362856343 3.915206855747
CELL_PARAMETERS {angstrom}
10.753176666667 0 0
0 6.42599 0
0 0 5.111796666667
!End