&CONTROL
calculation = "scf"
etot_conv_thr = 1.0d-5
forc_conv_thr = 1.0d-4
pseudo_dir = '/opt/QEpot/SSSP_precision_pseudos/'
disk_io = 'none'
tprnfor = .true.
tstress = .true.
verbosity = 'high'
/
!controlend

&SYSTEM
ntyp = 4
occupations = 'smearing'
smearing = 'cold'
degauss =   7.3498618000d-03
ecutrho = 1.080d+03
ecutwfc = 1.000d+02
ibrav = 0
nat = 25
nosym = .false.
starting_magnetization(1) =   3.1250000000d-01
starting_magnetization(2) =   0.0000000000d+00
starting_magnetization(3) =   0.0000000000d+00
starting_magnetization(4) =   0.0000000000d+00
nspin = 2
!systemend
/

&ELECTRONS
conv_thr =   2.0000000000d-10
electron_maxstep = 1000
mixing_beta =   4.0000000000d-01
/
K_POINTS {automatic}
5 7 9 0 0 0
ATOMIC_SPECIES
Fe  55.845  Fe.pbe-spn-kjpaw_psl.0.2.1.UPF
Na  22.98977  Na_ONCV_PBE-1.0.oncvpsp.upf
O  15.9994  O.pbe-n-kjpaw_psl.0.1.UPF
P  30.973761  P.pbe-n-rrkjus_psl.1.0.0.UPF
ATOMIC_POSITIONS {angstrom}
Na 10.114334429982 5.7434171964 4.5130271886
Fe 3.007632468205 4.7816019609 4.469326274
Fe 2.228021436407 1.711199679 2.3657263056
Fe 7.2516197487 1.4676691683 0.3326196622
Fe 7.980506485217 4.448360484 2.3601363086
P 1.03583165507 4.5120461907 1.8238280389
P 4.016326574135 1.5925095708 4.5460823744
P 9.226357393133 1.7832992868 2.9784097644
P 6.220976154495 4.6568797137 0.2022193782
O 1.449658813732 4.6554121005 3.30106637
O 3.635346901423 1.549264731 1.0853300724
O 8.785883862692 1.6752307182 1.5049162366
O 6.596491479077 4.6814187039 3.6636790869
O 4.72150377017 4.6778491701 0.3898058262
O 0.458851749995 1.3556766 3.1567949784
O 5.520813060677 1.5815149092 4.3859561683
O 9.782339466068 4.8856719054 1.6558807839
O 1.833145537552 5.5319751777 0.9426911578
O 3.351292894418 0.4071818199 3.735948349
O 8.93494595859 3.1978483197 3.5537886503
O 6.877844010602 3.4296627996 0.9637797925
O 8.374543289415 0.7763736015 3.8284256976
O 6.912011535707 5.8258958145 1.008722379
O 1.373117008465 3.105556593 1.2778090045
O 3.338512050197 2.8099631259 3.7889098604
CELL_PARAMETERS {angstrom}
10.232861666667 0 0
0 6.2187 0
0 0 4.9469
!End