&CONTROL
calculation = "scf"
etot_conv_thr = 1.0d-5
forc_conv_thr = 1.0d-4
pseudo_dir = '/opt/QEpot/SSSP_precision_pseudos/'
disk_io = 'none'
tprnfor = .true.
tstress = .true.
verbosity = 'high'
/
!controlend

&SYSTEM
ntyp = 4
occupations = 'smearing'
smearing = 'cold'
degauss =   7.3498618000d-03
ecutrho = 1.080d+03
ecutwfc = 1.000d+02
ibrav = 0
nat = 25
nosym = .false.
starting_magnetization(1) =   3.1250000000d-01
starting_magnetization(2) =   0.0000000000d+00
starting_magnetization(3) =   0.0000000000d+00
starting_magnetization(4) =   0.0000000000d+00
nspin = 2
!systemend
/

&ELECTRONS
conv_thr =   2.0000000000d-10
electron_maxstep = 1000
mixing_beta =   4.0000000000d-01
/
K_POINTS {automatic}
5 7 9 0 0 0
ATOMIC_SPECIES
Fe  55.845  Fe.pbe-spn-kjpaw_psl.0.2.1.UPF
Na  22.98977  Na_ONCV_PBE-1.0.oncvpsp.upf
O  15.9994  O.pbe-n-kjpaw_psl.0.1.UPF
P  30.973761  P.pbe-n-rrkjus_psl.1.0.0.UPF
ATOMIC_POSITIONS {angstrom}
Na 9.942905032863 5.55196995652 4.36259294898
Fe 2.95665564671 4.62221522887 4.320348731533
Fe 2.190258361213 1.6541596897 2.28686876208
Fe 7.1287109394 1.41874686269 0.321532340127
Fe 7.845243663433 4.3000818012 2.281465098313
P 1.01827518634 4.36164465101 1.763033770937
P 3.94825324237 1.53942591844 4.394546295253
P 9.069978454267 1.72385597724 2.87912943892
P 6.11553588069 4.50165038991 0.19547873226
O 1.425088325363 4.50023169715 3.191030824333
O 3.573730852247 1.4976225733 1.04915240332
O 8.636970576883 1.61938969426 1.454752362047
O 6.484686538753 4.52537141377 3.54155645067
O 4.64147828254 4.52192086443 0.37681229866
O 0.45107460169 1.31048738 3.05156847912
O 5.427239957953 1.52879774556 4.239757629357
O 9.616537102237 4.72281617522 1.60068475777
O 1.802075274203 5.34757600511 0.911268119207
O 3.294491319937 0.39360909257 3.611416737367
O 8.78350619658 3.09125337571 3.435329028623
O 6.761270383303 3.31534070628 0.931653799417
O 8.23260187773 0.75049448145 3.70081150768
O 6.794858797813 5.63169928735 0.9750982997
O 1.34984383883 3.0020380399 1.235215371017
O 3.281927100193 2.71629768837 3.662612865053
CELL_PARAMETERS {angstrom}
10.059423333333 0 0
0 6.01141 0
0 0 4.782003333333
!End