&CONTROL
calculation = "scf"
etot_conv_thr = 1.0d-5
forc_conv_thr = 1.0d-4
pseudo_dir = '/opt/QEpot/SSSP_precision_pseudos/'
disk_io = 'none'
tprnfor = .true.
tstress = .true.
verbosity = 'high'
/
!controlend

&SYSTEM
ntyp = 4
occupations = 'smearing'
smearing = 'cold'
degauss =   7.3498618000d-03
ecutrho = 1.080d+03
ecutwfc = 1.000d+02
ibrav = 0
nat = 25
nosym = .false.
starting_magnetization(1) =   3.1250000000d-01
starting_magnetization(2) =   0.0000000000d+00
starting_magnetization(3) =   0.0000000000d+00
starting_magnetization(4) =   0.0000000000d+00
nspin = 2
!systemend
/

&ELECTRONS
conv_thr =   2.0000000000d-10
electron_maxstep = 1000
mixing_beta =   4.0000000000d-01
/
K_POINTS {automatic}
5 7 9 0 0 0
ATOMIC_SPECIES
Fe  55.845  Fe.pbe-spn-kjpaw_psl.0.2.1.UPF
Na  22.98977  Na_ONCV_PBE-1.0.oncvpsp.upf
O  15.9994  O.pbe-n-kjpaw_psl.0.1.UPF
P  30.973761  P.pbe-n-rrkjus_psl.1.0.0.UPF
ATOMIC_POSITIONS {angstrom}
Na 10.800052018455 6.03058805622 4.73867854803
Fe 3.211539754185 5.020682058945 4.6927925877
Fe 2.37907373718 1.79675966295 2.48401262088
Fe 7.7432549859 1.541052626715 0.34925064531
Fe 8.52155777235 4.6707785082 2.47814312403
P 1.10605752999 4.737648500235 1.915019440845
P 4.288619901195 1.67213504934 4.77338649312
P 9.8518731486 1.87246425114 3.12733025262
P 6.642737249715 4.889723699385 0.21233034711
O 1.547940767205 4.888182705525 3.4661196885
O 3.88181109813 1.62672796755 1.13959657602
O 9.381537005925 1.75899225411 1.58016204843
O 7.04371124037 4.915489639095 3.846863041245
O 5.04160572069 4.911741628605 0.40929611751
O 0.489960343215 1.42346043 3.31463472732
O 5.89510547157 1.66059065466 4.605253976715
O 10.445548921395 5.12995550067 1.738674823095
O 1.957426590945 5.808573936585 0.98982571569
O 3.578499192345 0.427540910895 3.92274576645
O 9.54070500663 3.357740735685 3.731478082815
O 7.344138519795 3.60114593958 1.011968782125
O 8.942308936155 0.815192281575 4.01984698248
O 7.38062248728 6.117190605225 1.05915849795
O 1.466209687005 3.26083442265 1.341699454725
O 3.56485185021 2.950461282195 3.97835535342
CELL_PARAMETERS {angstrom}
10.926615 0 0
0 6.529635 0
0 0 5.194245
!End