&CONTROL
calculation = "scf"
etot_conv_thr = 1.0d-5
forc_conv_thr = 1.0d-4
pseudo_dir = '/opt/QEpot/SSSP_precision_pseudos/'
disk_io = 'none'
tprnfor = .true.
tstress = .true.
verbosity = 'high'
/
!controlend

&SYSTEM
ntyp = 4
occupations = 'smearing'
smearing = 'cold'
degauss =   7.3498618000d-03
ecutrho =   1.080d+03
ecutwfc =   1.000d+02
ibrav = 0
nat = 25
nosym = .false.
starting_magnetization(1) =   3.1250000000d-01
starting_magnetization(2) =   0.0000000000d+00
starting_magnetization(3) =   0.0000000000d+00
starting_magnetization(4) =   0.0000000000d+00
nspin = 2
!systemend
/

&ELECTRONS
conv_thr =   2.0000000000d-10
electron_maxstep = 1000
mixing_beta =   4.0000000000d-01
/
K_POINTS {automatic}
5 7 9 0 0 0
ATOMIC_SPECIES
Fe  55.845  Fe.pbe-spn-kjpaw_psl.0.2.1.UPF
Na  22.98977  Na_ONCV_PBE-1.0.oncvpsp.upf
O  15.9994  O.pbe-n-kjpaw_psl.0.1.UPF
P  30.973761  P.pbe-n-rrkjus_psl.1.0.0.UPF
ATOMIC_POSITIONS {angstrom}
Na -1.93257e-05 2.817e-07 4.9469286556
Fe 2.9840691452 4.6420369561 4.8977076909
Fe 2.3244185505 1.5828935223 2.4513804955
Fe 7.4222915025 1.576693335 0.0492179311
Fe 8.0819425017 4.6358367349 2.4955486079
P 1.1249409169 4.6388291163 2.2030190735
P 4.0750627555 1.5475173849 4.6753064329
P 9.2814235327 1.5799030242 2.7439282735
P 6.3312972383 4.6712127572 0.2716131094
O 1.3408839517 4.6880996164 3.7317517428
O 3.8308106846 1.5441457417 1.2492754595
O 9.065476199 1.5306304646 1.2151630622
O 6.5755495611 4.6745848046 3.6976569274
O 4.814846766 4.6739070535 0.5730826669
O 0.3951611621 1.5235353507 3.0808276355
O 5.5915158047 1.5448237271 4.3738456815
O 10.0111974882 4.6951955952 1.8660985445
O 1.8381040202 5.8476752569 1.4608580705
O 3.3238041798 0.3498550116 3.9670202335
O 8.5573789083 2.7991969004 3.4205608985
O 7.0625668038 3.4517459214 0.9714241877
O 8.5682586951 0.3710578593 3.4860680213
O 7.0825587447 5.8688773333 0.9799080376
O 1.8489844915 3.4195309761 1.5263644334
O 3.3437957214 2.7669832746 3.9755041268
CELL_PARAMETERS {angstrom}
10.4063 0 0
0 6.2187 0
0 0 4.9469
!End