&CONTROL
calculation = "scf"
etot_conv_thr = 1.0d-5
forc_conv_thr = 1.0d-4
pseudo_dir = '/opt/QEpot/SSSP_precision_pseudos/'
disk_io = 'none'
tprnfor = .true.
tstress = .true.
verbosity = 'high'
/
!controlend

&SYSTEM
ntyp = 4
occupations = 'smearing'
smearing = 'cold'
degauss =   7.3498618000d-03
ecutrho = 1.080d+03
ecutwfc = 1.000d+02
ibrav = 0
nat = 25
nosym = .false.
starting_magnetization(1) =   3.1250000000d-01
starting_magnetization(2) =   0.0000000000d+00
starting_magnetization(3) =   0.0000000000d+00
starting_magnetization(4) =   0.0000000000d+00
nspin = 2
!systemend
/

&ELECTRONS
conv_thr =   2.0000000000d-10
electron_maxstep = 1000
mixing_beta =   4.0000000000d-01
/
K_POINTS {automatic}
5 7 9 0 0 0
ATOMIC_SPECIES
Fe  55.845  Fe.pbe-spn-kjpaw_psl.0.2.1.UPF
Na  22.98977  Na_ONCV_PBE-1.0.oncvpsp.upf
O  15.9994  O.pbe-n-kjpaw_psl.0.1.UPF
P  30.973761  P.pbe-n-rrkjus_psl.1.0.0.UPF
ATOMIC_POSITIONS {angstrom}
Na 10.579717173857 0 2.96814e-05
Fe 3.033803445513 4.6420356768 4.8977080264
Fe 2.363153832563 1.5828954606 2.4513818791
Fe 7.54599836625 1.5766954167 0.0492167081
Fe 8.216637399462 4.6358356329 2.4955478023
P 1.14369087331 4.6388268276 2.2030178177
P 4.14298321238 1.5475172763 4.6753052962
P 9.436110938453 1.5799042659 2.7439267044
P 6.436818599383 4.6712138172 0.2716144914
O 1.363231023465 4.6880975877 3.7317533778
O 3.89465559422 1.5441467409 1.2492752853
O 9.216570788298 1.5306335058 1.2151614629
O 6.685146217543 4.6745843526 3.697659343
O 4.895096810497 4.6739065143 0.5730835243
O 0.401744403732 1.5235379691 3.0808254351
O 5.684705001267 1.5448245792 4.3738461571
O 10.178046828293 4.6951931244 1.8660992994
O 1.86874150077 5.8476737019 1.4608591452
O 3.379200162882 0.3498578433 3.967018048
O 8.700004484435 2.7991985562 3.4205587395
O 7.180277971543 3.4517454033 0.971422753
O 8.711060310993 0.3710573916 3.4860655893
O 7.200601648882 5.8688794689 0.9799066865
O 1.879797327328 3.4195325373 1.526365995
O 3.39952384022 2.7669856902 3.9755019815
CELL_PARAMETERS {angstrom}
10.579738333333 0 0
0 6.2187 0
0 0 4.9469
!End