&CONTROL
calculation = "scf"
etot_conv_thr = 1.0d-5
forc_conv_thr = 1.0d-4
pseudo_dir = '/opt/QEpot/SSSP_precision_pseudos/'
disk_io = 'none'
tprnfor = .true.
tstress = .true.
verbosity = 'high'
/
!controlend

&SYSTEM
ntyp = 4
occupations = 'smearing'
smearing = 'cold'
degauss =   7.3498618000d-03
ecutrho = 1.080d+03
ecutwfc = 1.000d+02
ibrav = 0
nat = 25
nosym = .false.
starting_magnetization(1) =   3.1250000000d-01
starting_magnetization(2) =   0.0000000000d+00
starting_magnetization(3) =   0.0000000000d+00
starting_magnetization(4) =   0.0000000000d+00
nspin = 2
!systemend
/

&ELECTRONS
conv_thr =   2.0000000000d-10
electron_maxstep = 1000
mixing_beta =   4.0000000000d-01
/
K_POINTS {automatic}
5 7 9 0 0 0
ATOMIC_SPECIES
Fe  55.845  Fe.pbe-spn-kjpaw_psl.0.2.1.UPF
Na  22.98977  Na_ONCV_PBE-1.0.oncvpsp.upf
O  15.9994  O.pbe-n-kjpaw_psl.0.1.UPF
P  30.973761  P.pbe-n-rrkjus_psl.1.0.0.UPF
ATOMIC_POSITIONS {angstrom}
Na 9.88596522803 5.907765 2.96814e-05
Fe 2.83486551466 4.40993389296 4.8977080264
Fe 2.20819292551 1.50375068757 2.4513818791
Fe 7.05117880125 1.497860645865 0.0492167081
Fe 7.677841504415 4.404043851255 2.4955478023
P 1.06869475047 4.40688548622 2.2030178177
P 3.87131218206 1.470141412485 4.6753052962
P 8.81734956544 1.500909052605 2.7439267044
P 6.01473213385 4.43765312634 0.2716144914
O 1.273838825205 4.453692708315 3.7317533778
O 3.63926834214 1.466939403855 1.2492752853
O 8.612205490705 1.45410183051 1.2151614629
O 6.24677597377 4.44085513497 3.697659343
O 4.57410685571 4.440211188585 0.5730835243
O 0.375400508405 1.447361070645 3.0808254351
O 5.3119374602 1.46758335024 4.3738461571
O 9.51063392152 4.46043346818 1.8660992994
O 1.74620107449 5.555290016805 1.4608591452
O 3.157613266955 0.332364951135 3.967018048
O 8.129512387095 2.65923862839 3.4205587395
O 6.70944007177 3.279158133135 0.971422753
O 8.13984324142 0.35250452202 3.4860655893
O 6.728431048955 5.575435495455 0.9799066865
O 1.756531928815 3.248555910435 1.526365995
O 3.17660424414 2.62863640569 3.9755019815
CELL_PARAMETERS {angstrom}
9.885985 0 0
0 5.907765 0
0 0 4.9469
!End