&CONTROL
calculation = "scf"
etot_conv_thr = 1.0d-5
forc_conv_thr = 1.0d-4
pseudo_dir = '/opt/QEpot/SSSP_precision_pseudos/'
disk_io = 'none'
tprnfor = .true.
tstress = .true.
verbosity = 'high'
/
!controlend

&SYSTEM
ntyp = 4
occupations = 'smearing'
smearing = 'cold'
degauss =   7.3498618000d-03
ecutrho = 1.080d+03
ecutwfc = 1.000d+02
ibrav = 0
nat = 25
nosym = .false.
starting_magnetization(1) =   3.1250000000d-01
starting_magnetization(2) =   0.0000000000d+00
starting_magnetization(3) =   0.0000000000d+00
starting_magnetization(4) =   0.0000000000d+00
nspin = 2
!systemend
/

&ELECTRONS
conv_thr =   2.0000000000d-10
electron_maxstep = 1000
mixing_beta =   4.0000000000d-01
/
K_POINTS {automatic}
5 7 9 0 0 0
ATOMIC_SPECIES
Fe  55.845  Fe.pbe-spn-kjpaw_psl.0.2.1.UPF
Na  22.98977  Na_ONCV_PBE-1.0.oncvpsp.upf
O  15.9994  O.pbe-n-kjpaw_psl.0.1.UPF
P  30.973761  P.pbe-n-rrkjus_psl.1.0.0.UPF
ATOMIC_POSITIONS {angstrom}
Na 10.753155160313 0 3.067078e-05
Fe 3.083537928227 4.79677019936 5.060964960613
Fe 2.401894059327 1.63565864262 2.533094608403
Fe 7.6697032575 1.62925193059 0.050857265037
Fe 8.351336373223 4.79036348733 2.578732729043
P 1.16243990402 4.79345438852 2.276451744957
P 4.21090096996 1.59910118551 4.831148806073
P 9.590801281707 1.63256774143 2.83539092788
P 6.542340215767 4.82692094444 0.28066830778
O 1.38557907303 4.84436750729 3.85614515706
O 3.95850240724 1.59561829893 1.29091779481
O 9.367662112697 1.58165462266 1.255666844997
O 6.794738778487 4.83040383102 3.820914654433
O 4.975344299193 4.82970339811 0.592186308443
O 0.408330377563 1.57432256807 3.18351961627
O 5.777896886533 1.59631873184 4.519641029003
O 10.344900054987 4.85169956188 1.92830260938
O 1.89937660734 6.04259615863 1.50955445004
O 3.434596886863 0.36151977141 4.099251982933
O 8.84262750877 2.89250517474 3.53457736415
O 7.297987446487 3.56680358341 1.003803511433
O 8.853864578387 0.38342597132 3.60226777561
O 7.318644298863 6.06450878453 1.012570242717
O 1.910613676957 3.53351695521 1.5772448615
O 3.45525373924 2.85921854654 4.108018714217
CELL_PARAMETERS {angstrom}
10.753176666667 0 0
0 6.42599 0
0 0 5.111796666667
!End