&CONTROL
calculation = "scf"
etot_conv_thr = 1.0d-5
forc_conv_thr = 1.0d-4
pseudo_dir = '/opt/QEpot/SSSP_precision_pseudos/'
disk_io = 'none'
tprnfor = .true.
tstress = .true.
verbosity = 'high'
/
!controlend

&SYSTEM
ntyp = 4
occupations = 'smearing'
smearing = 'cold'
degauss =   7.3498618000d-03
ecutrho = 1.080d+03
ecutwfc = 1.000d+02
ibrav = 0
nat = 25
nosym = .false.
starting_magnetization(1) =   3.1250000000d-01
starting_magnetization(2) =   0.0000000000d+00
starting_magnetization(3) =   0.0000000000d+00
starting_magnetization(4) =   0.0000000000d+00
nspin = 2
!systemend
/

&ELECTRONS
conv_thr =   2.0000000000d-10
electron_maxstep = 1000
mixing_beta =   4.0000000000d-01
/
K_POINTS {automatic}
5 7 9 0 0 0
ATOMIC_SPECIES
Fe  55.845  Fe.pbe-spn-kjpaw_psl.0.2.1.UPF
Na  22.98977  Na_ONCV_PBE-1.0.oncvpsp.upf
O  15.9994  O.pbe-n-kjpaw_psl.0.1.UPF
P  30.973761  P.pbe-n-rrkjus_psl.1.0.0.UPF
ATOMIC_POSITIONS {angstrom}
Na 10.92659314677 0 2.96814e-05
Fe 3.13327241094 4.87413746064 4.8977080264
Fe 2.44063428609 1.66204023363 2.4513818791
Fe 7.79340814875 1.655530187535 0.0492167081
Fe 8.486035346985 4.867627414545 2.4955478023
P 1.18118893473 4.87076816898 2.2030178177
P 4.27881872754 1.624893140115 4.6753052962
P 9.74549162496 1.658899479195 2.7439267044
P 6.64786183215 4.90477450806 0.2716144914
O 1.407927122595 4.922502467085 3.7317533778
O 4.02234922026 1.621354077945 1.2492752853
O 9.518753437095 1.60716518109 1.2151614629
O 6.90433133943 4.90831357023 3.697659343
O 5.05559178789 4.907601840015 0.5730835243
O 0.414916351395 1.599714867555 3.0808254351
O 5.8710887718 1.62206580816 4.3738461571
O 10.51175328168 4.92995278062 1.8660992994
O 1.93001171391 6.140057386995 1.4608591452
O 3.489993610845 0.367350735465 3.967018048
O 8.985250533105 2.93915848401 3.4205587395
O 7.41569692143 3.624332673465 0.971422753
O 8.99666884578 0.38961026118 3.4860655893
O 7.436686948845 6.162323442345 0.9799066865
O 1.941430026585 3.590509164165 1.526365995
O 3.51098363826 2.90533497471 3.9755019815
CELL_PARAMETERS {angstrom}
10.926615 0 0
0 6.529635 0
0 0 4.9469
!End