&CONTROL
calculation = "scf"
etot_conv_thr =   1.0000000000d-05
forc_conv_thr =   1.0000000000d-04
prefix = 'aiida'
pseudo_dir = '/opt/QEpot/SSSP_precision_pseudos/'
tprnfor = .true.
tstress = .true.
verbosity = 'high'
disk_io = 'none'
/
&SYSTEM
degauss =   2.2049585400d-02
ecutrho = 4.4000000000d+02
ecutwfc = 8.0000000000d+01
ibrav = 0
nat = 15
nosym = .false.
ntyp = 2
occupations = 'smearing'
smearing = 'cold'
/
&ELECTRONS
conv_thr =   2.0000000000d-10
electron_maxstep = 80
mixing_beta =   4.0000000000d-01
/
K_POINTS {automatic}
5 5 5 0 0 0
ATOMIC_SPECIES
B  10.81  B_pbe_v1.01.uspp.F.UPF
N  14.007  N.oncvpsp.upf
ATOMIC_POSITIONS {angstrom}
B 4.681500587088 1.26715949805 0.918393436612
B 3.212282656012 1.999815871741 3.169488469891
B 3.219472240234 3.629890557335 0.913598056979
B 7.130975128644 2.785167204418 3.746151233935
B 5.661757197568 5.157633552597 3.74285488972
B 7.137429404276 4.418147936616 1.486964476808
B 8.510690312317 6.386755468976 4.642309621833
B 9.501054118782 5.897142985014 3.117493536759
B 9.508243703005 4.780677395273 4.6375142422
B 0.842203665873 1.63438036648 0.022235048714
B 1.832567472338 0.038037581671 0.018938704499
B 0.842203665873 0.527650065633 1.543754789573
B 5.171261238033 3.213849548625 2.328975991059
N 6.363038438437 3.949065388863 2.869170961001
N 3.980219346218 2.475727661784 1.792077365331
CELL_PARAMETERS {angstrom}
5.47281 0 0
2.435516888985 4.901010791619 0
2.435516888985 1.509357759694 4.662804513683
!End