&CONTROL
calculation = "scf"
etot_conv_thr =   1.0000000000d-05
forc_conv_thr =   1.0000000000d-04
prefix = 'aiida'
pseudo_dir = '/opt/QEpot/SSSP_precision_pseudos/'
tprnfor = .true.
tstress = .true.
verbosity = 'high'
disk_io = 'none'
/
&SYSTEM
degauss =   2.2049585400d-02
ecutrho = 4.4000000000d+02
ecutwfc = 8.0000000000d+01
ibrav = 0
nat = 15
nosym = .false.
ntyp = 2
occupations = 'smearing'
smearing = 'cold'
/
&ELECTRONS
conv_thr =   2.0000000000d-10
electron_maxstep = 80
mixing_beta =   4.0000000000d-01
/
K_POINTS {automatic}
5 5 5 0 0 0
ATOMIC_SPECIES
B  10.81  B_pbe_v1.01.uspp.F.UPF
N  14.007  N.oncvpsp.upf
ATOMIC_POSITIONS {angstrom}
B 4.522853730933 1.209502604849 0.879295108996
B 3.077323043456 1.915440804066 3.026748830894
B 3.093917923692 3.502364614594 0.876036843882
B 6.87112242645 2.664790225089 3.572397773113
B 5.444282746078 4.970064277811 3.572812087875
B 6.882741752847 4.262651923321 1.422100100863
B 8.199607139254 6.1474377829 4.425881952064
B 9.166882054216 5.6893104034 2.977229846959
B 9.152171109632 4.597484600386 4.42262368695
B 0.81286924051 1.569670239296 0.025810930045
B 1.767529337757 0.03212909976 0.026225244807
B 0.800254422795 0.49025647926 1.474877349912
B 4.981080461586 3.095252385183 2.226260755816
N 6.134835663179 3.796245292685 2.737178465557
N 3.832300813832 2.383321589975 1.714928731313
CELL_PARAMETERS {angstrom}
5.29907 0 0
2.358198892509 4.745423147441 0
2.319539894271 1.437483580661 4.440766203507
!End