&CONTROL
calculation = "scf"
etot_conv_thr =   1.0000000000d-05
forc_conv_thr =   1.0000000000d-04
prefix = 'aiida'
pseudo_dir = '/opt/QEpot/SSSP_precision_pseudos/'
tprnfor = .true.
tstress = .true.
verbosity = 'high'
disk_io = 'none'
/
&SYSTEM
degauss =   2.2049585400d-02
ecutrho = 4.4000000000d+02
ecutwfc = 8.0000000000d+01
ibrav = 0
nat = 15
nosym = .false.
ntyp = 2
occupations = 'smearing'
smearing = 'cold'
/
&ELECTRONS
conv_thr =   2.0000000000d-10
electron_maxstep = 80
mixing_beta =   4.0000000000d-01
/
K_POINTS {automatic}
5 5 5 0 0 0
ATOMIC_SPECIES
B  10.81  B_pbe_v1.01.uspp.F.UPF
N  14.007  N.oncvpsp.upf
ATOMIC_POSITIONS {angstrom}
B 4.272593399541 1.204794316183 0.878535184762
B 3.000163470649 1.903376003484 3.021328072792
B 2.999764750889 3.462519294225 0.879969222631
B 6.573380127001 2.650515941296 3.571637848879
B 5.300950198109 4.910821413823 3.567391329772
B 6.573105591667 4.213240607826 1.426032479611
B 7.922346819013 6.08060000278 4.425122027829
B 8.781335273438 5.615116111363 2.971809088857
B 8.780936553678 4.558506758928 4.426556065698
B 0.792208324212 1.554528476594 0.025051005811
B 1.651196778637 0.035015727227 0.020804486705
B 0.792208324212 0.500499618644 1.474117425677
B 4.786833891038 3.059598552898 2.220839997714
N 5.891027379414 3.758990402672 2.736418541323
N 3.682516218236 2.356625327335 1.709507973211
CELL_PARAMETERS {angstrom}
4.95159 0 0
2.319539894271 4.667629325352 0
2.319539894271 1.437483580661 4.440766203507
!End