&CONTROL
calculation = "scf"
etot_conv_thr =   1.0000000000d-05
forc_conv_thr =   1.0000000000d-04
prefix = 'aiida'
pseudo_dir = '/opt/QEpot/SSSP_precision_pseudos/'
tprnfor = .true.
tstress = .true.
verbosity = 'high'
disk_io = 'none'
/
&SYSTEM
degauss =   2.2049585400d-02
ecutrho = 4.4000000000d+02
ecutwfc = 8.0000000000d+01
ibrav = 0
nat = 15
nosym = .false.
ntyp = 2
occupations = 'smearing'
smearing = 'cold'
/
&ELECTRONS
conv_thr =   2.0000000000d-10
electron_maxstep = 80
mixing_beta =   4.0000000000d-01
/
K_POINTS {automatic}
5 5 5 0 0 0
ATOMIC_SPECIES
B  10.81  B_pbe_v1.01.uspp.F.UPF
N  14.007  N.oncvpsp.upf
ATOMIC_POSITIONS {angstrom}
B 4.377331615444 1.18904383918 0.854414285736
B 3.005971777199 1.864493967618 2.971079527128
B 3.010201138923 3.401006530795 0.865996816075
B 6.671283963885 2.610670103874 3.502631905451
B 5.29992412564 4.821815287785 3.508041729825
B 6.679399117946 4.139215822503 1.402959018773
B 7.963398183516 5.983586097666 4.341891348086
B 8.895456162968 5.514371740365 2.922385859591
B 8.899685524692 4.478727537753 4.353473878425
B 0.781799578116 1.532949096916 0.015154843101
B 1.713857557568 0.027273029298 0.020564667475
B 0.781799578116 0.496487386599 1.44007015597
B 4.84057076671 3.001446141208 2.183932919968
N 5.952105158771 3.700669990893 2.681332919688
N 3.725150582313 2.310189136071 1.681123095873
CELL_PARAMETERS {angstrom}
5.12533 0 0
2.280880896034 4.589835503263 0
2.280880896034 1.413525520983 4.366753433449
!End