&CONTROL
calculation = "scf"
etot_conv_thr =   1.0000000000d-05
forc_conv_thr =   1.0000000000d-04
prefix = 'aiida'
pseudo_dir = '/opt/QEpot/SSSP_precision_pseudos/'
tprnfor = .true.
tstress = .true.
verbosity = 'high'
disk_io = 'none'
/
&SYSTEM
degauss =   2.2049585400d-02
ecutrho = 4.4000000000d+02
ecutwfc = 8.0000000000d+01
ibrav = 0
nat = 15
nosym = .false.
ntyp = 2
occupations = 'smearing'
smearing = 'cold'
/
&ELECTRONS
conv_thr =   2.0000000000d-10
electron_maxstep = 80
mixing_beta =   4.0000000000d-01
/
K_POINTS {automatic}
5 5 5 0 0 0
ATOMIC_SPECIES
B  10.81  B_pbe_v1.01.uspp.F.UPF
N  14.007  N.oncvpsp.upf
ATOMIC_POSITIONS {angstrom}
B 4.390569162753 1.181803940422 0.869735604331
B 3.031075266045 1.877764929106 3.028805286165
B 3.015624345532 3.408892290706 0.873844098854
B 6.707966260675 2.617959570409 3.562838268448
B 5.329781356863 4.838032276039 3.574868543145
B 6.689576066932 4.150047609179 1.419907355835
B 8.007510469154 5.995480135564 4.416322447398
B 8.920128565324 5.52737554553 2.979286302229
B 8.935983469631 4.505747234319 4.420430941922
B 0.787607136576 1.521104626796 0.01625142538
B 1.712840050461 0.024356080897 0.028281700078
B 0.800221954291 0.492460670931 1.465317845246
B 4.858705623193 3.010398446816 2.228317211087
N 5.981516471173 3.703453425564 2.727618960892
N 3.738834048443 2.316382790898 1.716985186584
CELL_PARAMETERS {angstrom}
5.12533 0 0
2.280880896034 4.589835503263 0
2.319539894271 1.437483580661 4.440766203507
!End