&CONTROL
calculation = "scf"
etot_conv_thr =   1.0000000000d-05
forc_conv_thr =   1.0000000000d-04
prefix = 'aiida'
pseudo_dir = '/opt/QEpot/SSSP_precision_pseudos/'
tprnfor = .true.
tstress = .true.
verbosity = 'high'
disk_io = 'none'
/
&SYSTEM
degauss =   2.2049585400d-02
ecutrho = 4.4000000000d+02
ecutwfc = 8.0000000000d+01
ibrav = 0
nat = 15
nosym = .false.
ntyp = 2
occupations = 'smearing'
smearing = 'cold'
/
&ELECTRONS
conv_thr =   2.0000000000d-10
electron_maxstep = 80
mixing_beta =   4.0000000000d-01
/
K_POINTS {automatic}
5 5 5 0 0 0
ATOMIC_SPECIES
B  10.81  B_pbe_v1.01.uspp.F.UPF
N  14.007  N.oncvpsp.upf
ATOMIC_POSITIONS {angstrom}
B 4.611725090365 1.2511735501 0.911403810374
B 3.159877988933 1.962855276848 3.114235463809
B 3.158953699765 3.574971754743 0.907925585483
B 7.022319083643 2.74508589605 3.694276563295
B 5.57047198221 5.070548867532 3.678500829355
B 7.014721067552 4.35071711213 1.472190951029
B 8.380134026305 6.289506092917 4.576210214877
B 9.348827682453 5.798320054989 3.063065847076
B 9.347903393285 4.707492134935 4.572731989986
B 0.833369390122 1.612565515857 0.029470158791
B 1.80206304627 0.032216324715 0.013694424852
B 0.833369390122 0.523402362642 1.526838792653
B 5.087761672827 3.157618577908 2.287064452895
N 6.266571864709 3.890509506138 2.831216612154
N 3.915625207867 2.431212911493 1.758688027575
CELL_PARAMETERS {angstrom}
5.38594 0 0
2.396857890747 4.82321696953 0
2.396857890747 1.485399700016 4.588791743624
!End