&CONTROL
calculation = "scf"
etot_conv_thr =   1.0000000000d-05
forc_conv_thr =   1.0000000000d-04
prefix = 'aiida'
pseudo_dir = '/opt/QEpot/SSSP_precision_pseudos/'
tprnfor = .true.
tstress = .true.
verbosity = 'high'
disk_io = 'none'
/
&SYSTEM
degauss =   2.2049585400d-02
ecutrho = 4.4000000000d+02
ecutwfc = 8.0000000000d+01
ibrav = 0
nat = 15
nosym = .false.
ntyp = 2
occupations = 'smearing'
smearing = 'cold'
/
&ELECTRONS
conv_thr =   2.0000000000d-10
electron_maxstep = 80
mixing_beta =   4.0000000000d-01
/
K_POINTS {automatic}
5 5 5 0 0 0
ATOMIC_SPECIES
B  10.81  B_pbe_v1.01.uspp.F.UPF
N  14.007  N.oncvpsp.upf
ATOMIC_POSITIONS {angstrom}
B 4.405719161435 1.196346935251 0.875713199903
B 3.048099809601 1.887643719968 3.026089930604
B 3.037684997223 3.454877340768 0.875193461552
B 6.727870001735 2.642068560364 3.56881586402
B 5.370250649901 4.895089130307 3.572153187585
B 6.716390461001 4.205598654369 1.421256718533
B 8.053535206166 6.072152621848 4.422300042971
B 8.968027847211 5.599383827846 2.976570946669
B 8.957613034833 4.550864805471 4.42178030462
B 0.807941964125 1.546081095661 0.022229020953
B 1.72243460517 0.01928344371 0.025566344517
B 0.807941964125 0.492052237711 1.471295440819
B 4.88745254149 3.043866269381 2.225601855526
N 6.012840234947 3.75054302174 2.733596556465
N 3.763129576388 2.340893043818 1.714269831023
CELL_PARAMETERS {angstrom}
5.12533 0 0
2.319539894271 4.667629325352 0
2.319539894271 1.437483580661 4.440766203507
!End