&CONTROL
calculation = "scf"
etot_conv_thr =   1.0000000000d-05
forc_conv_thr =   1.0000000000d-04
prefix = 'aiida'
pseudo_dir = '/opt/QEpot/SSSP_precision_pseudos/'
tprnfor = .true.
tstress = .true.
verbosity = 'high'
disk_io = 'none'
/
&SYSTEM
degauss =   2.2049585400d-02
ecutrho = 4.4000000000d+02
ecutwfc = 8.0000000000d+01
ibrav = 0
nat = 15
nosym = .false.
ntyp = 2
occupations = 'smearing'
smearing = 'cold'
/
&ELECTRONS
conv_thr =   2.0000000000d-10
electron_maxstep = 80
mixing_beta =   4.0000000000d-01
/
K_POINTS {automatic}
5 5 5 0 0 0
ATOMIC_SPECIES
B  10.81  B_pbe_v1.01.uspp.F.UPF
N  14.007  N.oncvpsp.upf
ATOMIC_POSITIONS {angstrom}
B 4.659898643076 1.239119322167 0.869932778731
B 3.133832523171 1.9445837644 3.023970178864
B 3.188000579482 3.611196533657 0.869728365106
B 7.039038936188 2.713538932661 3.563035442849
B 5.569045837595 5.093563364957 3.570033435845
B 7.091696516392 4.390615832639 1.415791622087
B 8.396464153316 6.301313483128 4.416519621799
B 9.423897245409 5.842712346643 2.974451194929
B 9.384147827264 4.70458156163 4.416315208174
B 0.842891688406 1.620153904689 0.016448599781
B 1.832480327354 0.031369203996 0.023446592777
B 0.805047235261 0.489970340481 1.465515019647
B 5.113717002282 3.171573408922 2.223482103786
N 6.292915199147 3.890955212698 2.727816135293
N 3.936029281524 2.441727474426 1.712150079283
CELL_PARAMETERS {angstrom}
5.47281 0 0
2.435516888985 4.901010791619 0
2.319539894271 1.437483580661 4.440766203507
!End