&CONTROL
calculation = "scf"
etot_conv_thr =   1.0000000000d-05
forc_conv_thr =   1.0000000000d-04
prefix = 'aiida'
pseudo_dir = '/opt/QEpot/SSSP_precision_pseudos/'
tprnfor = .true.
tstress = .true.
verbosity = 'high'
disk_io = 'none'
/
&SYSTEM
degauss =   2.2049585400d-02
ecutrho = 4.4000000000d+02
ecutwfc = 8.0000000000d+01
ibrav = 0
nat = 15
nosym = .false.
ntyp = 2
occupations = 'smearing'
smearing = 'cold'
/
&ELECTRONS
conv_thr =   2.0000000000d-10
electron_maxstep = 80
mixing_beta =   4.0000000000d-01
/
K_POINTS {automatic}
5 5 5 0 0 0
ATOMIC_SPECIES
B  10.81  B_pbe_v1.01.uspp.F.UPF
N  14.007  N.oncvpsp.upf
ATOMIC_POSITIONS {angstrom}
B 4.323845571176 1.177440975115 0.86452684365
B 3.010853740562 1.865765263117 3.030452800851
B 2.966101409737 3.3587814668 0.873841060961
B 6.625806870301 2.604030609974 3.557629507767
B 5.275433025479 4.778854546644 3.576516057832
B 6.58261707726 4.090370790147 1.419904317941
B 7.910880826618 5.928987678803 4.411113686718
B 8.799654184102 5.453246388086 2.980933816916
B 8.817513502915 4.456503889323 4.420427904029
B 0.774394777123 1.506308187451 0.0110426647
B 1.688397770037 0.027307842957 0.029929214764
B 0.799624412553 0.503049133673 1.460109084566
B 4.800420567219 2.974809749124 2.229964725773
N 5.904275567683 3.666543858909 2.722410200212
N 3.695003028972 2.28975166285 1.71863270127
CELL_PARAMETERS {angstrom}
5.03846 0 0
2.242221897796 4.512041681173 0
2.319539894271 1.437483580661 4.440766203507
!End