&CONTROL
calculation = "scf"
etot_conv_thr =   1.0000000000d-05
forc_conv_thr =   1.0000000000d-04
prefix = 'aiida'
pseudo_dir = '/opt/QEpot/SSSP_precision_pseudos/'
tprnfor = .true.
tstress = .true.
verbosity = 'high'
disk_io = 'none'
/
&SYSTEM
degauss =   2.2049585400d-02
ecutrho = 4.4000000000d+02
ecutwfc = 8.0000000000d+01
ibrav = 0
nat = 15
nosym = .false.
ntyp = 2
occupations = 'smearing'
smearing = 'cold'
/
&ELECTRONS
conv_thr =   2.0000000000d-10
electron_maxstep = 80
mixing_beta =   4.0000000000d-01
/
K_POINTS {automatic}
5 5 5 0 0 0
ATOMIC_SPECIES
B  10.81  B_pbe_v1.01.uspp.F.UPF
N  14.007  N.oncvpsp.upf
ATOMIC_POSITIONS {angstrom}
B 4.537317902014 1.231020037715 0.882331368367
B 3.10987654881 1.921431128014 3.0698791569
B 3.120457835256 3.509031515926 0.894008755622
B 6.909031347013 2.700837023246 3.620319076886
B 5.481589993809 4.979000628526 3.625043468164
B 6.914035406789 4.27226485142 1.449173066885
B 8.244946048665 6.188089152421 4.488027992153
B 9.19900447308 5.695033571025 3.019534856566
B 9.209585759526 4.623285438374 4.499705379407
B 0.819903422743 1.586583100798 0.014622453101
B 1.773961847158 0.021931513819 0.019346844378
B 0.819903422743 0.514987095216 1.487839979965
B 5.006665334576 3.096924053251 2.256049613904
N 6.165473599352 3.827786058978 2.771179447538
N 3.85343429647 2.382234607263 1.736195388993
CELL_PARAMETERS {angstrom}
5.29907 0 0
2.358198892509 4.745423147441 0
2.358198892509 1.461441640339 4.514778973566
!End