&CONTROL
calculation = "scf"
etot_conv_thr = 1.0d-5
forc_conv_thr = 1.0d-4
pseudo_dir = '/opt/QEpot/SSSP_precision_pseudos/'
disk_io = 'none'
tprnfor = .true.
tstress = .true.
verbosity = 'high'
/
!controlend

&SYSTEM
ntyp = 4
occupations = 'smearing'
smearing = 'cold'
degauss =   7.3498618000d-03
ecutrho =   1.080d+03
ecutwfc =   1.000d+02
ibrav = 0
nat = 25
nosym = .false.
starting_magnetization(1) =   3.1250000000d-01
starting_magnetization(2) =   0.0000000000d+00
starting_magnetization(3) =   0.0000000000d+00
starting_magnetization(4) =   0.0000000000d+00
nspin = 2
!systemend
/

&ELECTRONS
conv_thr =   2.0000000000d-10
electron_maxstep = 1000
mixing_beta =   4.0000000000d-01
/
K_POINTS {automatic}
5 7 9 0 0 0
ATOMIC_SPECIES
Fe  55.845  Fe.pbe-spn-kjpaw_psl.0.2.1.UPF
Na  22.98977  Na_ONCV_PBE-1.0.oncvpsp.upf
O  15.9994  O.pbe-n-kjpaw_psl.0.1.UPF
P  30.973761  P.pbe-n-rrkjus_psl.1.0.0.UPF
ATOMIC_POSITIONS {angstrom}
Na 3.7066111409 0.0823949921 1.0600362948
Fe 3.0044295333 3.8612223354 4.8159947551
Fe 1.7434076041 1.5726994944 2.2634160397
Fe 7.4132828662 1.5128467159 0.267541466
Fe 8.0552857603 4.7288868297 2.8478901855
P 1.025535851 4.6690305659 2.3224989321
P 4.3029959951 1.8595661173 3.8590050555
P 9.1372881755 1.5568748987 3.051661923
P 6.2286968717 4.496606799 0.5195567967
O 1.6040932403 4.6298419524 3.763757657
O 3.4986515227 2.021849774 0.2805979406
O 8.9183780044 1.4833366289 1.5334063574
O 6.549703748 4.6286329731 3.9690677196
O 4.6845465448 4.5529432346 0.664862654
O 0.2460839728 1.6446049853 3.3978547156
O 5.7155801965 1.3361301657 4.1357863642
O 9.9008367037 4.5603244655 2.2973284357
O 1.4880460013 5.9573576202 1.5665270831
O 3.4525940072 0.8417440412 3.0433390956
O 8.3838003829 2.7383012966 3.7491382646
O 6.7912374271 3.1925635334 1.1627051167
O 8.4970182755 0.3145241919 3.7849429341
O 6.9369976254 5.6657541268 1.3111584419
O 1.6622757914 3.4530645974 1.5119621187
O 4.1373027577 3.2636656648 3.2329241914
CELL_PARAMETERS {angstrom}
10.4063 0 0
0 6.2187 0
0 0 4.9469
!End