&CONTROL
calculation = "vc-md"
nstep = 1000
etot_conv_thr = 1.0d-5
forc_conv_thr = 1.0d-4
disk_io = 'none'
pseudo_dir = '/opt/QEpot/SSSP_precision_pseudos/'
tprnfor = .true.
tstress = .true.
dt = 20
/
!controlend

&SYSTEM
ntyp = 4
occupations = 'smearing'
smearing = 'cold'
degauss =   1.0000000000d-02
ecutrho =   1.080d+03
ecutwfc =   1.000d+02
ibrav = 0
nat = 25
nosym = .TRUE.
starting_magnetization(1) =   3.1250000000d-01
starting_magnetization(2) =   0.0000000000d+00
starting_magnetization(3) =   0.0000000000d+00
starting_magnetization(4) =   0.0000000000d+00
nspin = 2
/
&ELECTRONS
conv_thr =   5.6000000000d-09
electron_maxstep = 1000
mixing_beta =   4.0000000000d-01
/
&IONS
ion_dynamics = "beeman"
ion_temperature = "rescaling"
tempw = 50
tolp = 10
/
&CELL
!press_conv_thr = 0.1
cell_dynamics = "pr"
press = 0
/
K_POINTS {automatic}
3 4 5 0 0 0
ATOMIC_SPECIES
Fe     55.845 Fe.pbe-spn-kjpaw_psl.0.2.1.UPF
Na     22.98977 Na_ONCV_PBE-1.0.oncvpsp.upf
O      15.9994 O.pbe-n-kjpaw_psl.0.1.UPF
P      30.973761 P.pbe-n-rrkjus_psl.1.0.0.UPF
ATOMIC_POSITIONS {angstrom}
Na 5.4818327767 0.5064515367 2.3998785913
Fe 2.8877975853 4.6736517521 4.9143432688
Fe 2.1933290028 1.582833591 2.4254147408
Fe 7.5554119243 1.6222316141 0.0276654005
Fe 8.1606854559 4.6464281295 2.5244194256
P 1.1118751681 4.6835722514 2.1983476495
P 4.0508373564 1.6093947493 4.6721341839
P 9.2742569728 1.558547448 2.754182597
P 6.3134873486 4.6727597499 0.2774017284
O 1.3745183369 4.6975996715 3.7173900584
O 3.8055747919 1.5644029841 1.2477742166
O 9.0543643608 1.5671832256 1.2298443055
O 6.5399353934 4.71679262 3.6963107413
O 4.7981680258 4.7221907067 0.6119837873
O 0.3755511394 1.5509857506 3.0841691238
O 5.5885067008 1.5913238382 4.4058401521
O 9.9950968751 4.6830707464 1.9212235112
O 1.8439093924 5.8869133988 1.4796014273
O 3.3869328413 0.3911681747 3.9110989362
O 8.5293043345 2.7764301303 3.4478905125
O 7.0457824794 3.4581202737 0.9717192663
O 8.498129902 0.3678965684 3.4447233392
O 7.0507576553 5.880990389 1.0000833985
O 1.8292716267 3.4626264146 1.494469846
O 3.3341825532 2.8195450277 3.9787147919
CELL_PARAMETERS {angstrom}
10.4063 0 0
0 6.2187 0
0 0 4.9469
!End