&CONTROL
calculation = "scf"
etot_conv_thr = 1.0d-5
forc_conv_thr = 1.0d-4
pseudo_dir = '/opt/QEpot/SSSP_precision_pseudos/'
disk_io = 'none'
tprnfor = .true.
tstress = .true.
verbosity = 'high'
/
!controlend

&SYSTEM
ntyp = 4
occupations = 'smearing'
smearing = 'cold'
degauss =   7.3498618000d-03
ecutrho =   1.080d+03
ecutwfc =   1.000d+02
ibrav = 0
nat = 25
nosym = .false.
starting_magnetization(1) =   3.1250000000d-01
starting_magnetization(2) =   0.0000000000d+00
starting_magnetization(3) =   0.0000000000d+00
starting_magnetization(4) =   0.0000000000d+00
nspin = 2
!systemend
/

&ELECTRONS
conv_thr =   2.0000000000d-10
electron_maxstep = 1000
mixing_beta =   4.0000000000d-01
/
K_POINTS {automatic}
5 7 9 0 0 0
ATOMIC_SPECIES
Fe  55.845  Fe.pbe-spn-kjpaw_psl.0.2.1.UPF
Na  22.98977  Na_ONCV_PBE-1.0.oncvpsp.upf
O  15.9994  O.pbe-n-kjpaw_psl.0.1.UPF
P  30.973761  P.pbe-n-rrkjus_psl.1.0.0.UPF
ATOMIC_POSITIONS {angstrom}
Na 5.0137336725 0.3700222405 2.0090924678
Fe 2.836916402 4.3411732097 4.9136261904
Fe 1.9645948787 1.4516056941 2.0542036342
Fe 7.406342156 1.5872950999 0.0542740957
Fe 8.0583132024 4.7173014511 2.7443965644
P 0.9913699552 4.6379554339 2.1873957737
P 4.0413540314 1.7322578508 4.2793011937
P 9.1663383089 1.5473189362 2.8357650721
P 6.1597839538 4.5170937836 0.4167969693
O 1.4092800239 4.6547214464 3.6668543726
O 3.5331797905 1.6638337208 0.7891256638
O 8.8534977768 1.508111214 1.3310590348
O 6.4709999243 4.6252843754 3.8571004476
O 4.6418460239 4.771555966 0.6867128823
O 0.2849266638 1.5664561159 3.0652475825
O 5.5475680846 1.3274606744 4.207463621
O 9.8655290264 4.6078192463 2.0451884479
O 1.6282352866 5.8319134855 1.3782019693
O 3.2350893999 0.7185922145 3.3916156869
O 8.4359143653 2.7470410406 3.5685397634
O 6.6654314465 3.1787882851 1.0352111626
O 8.4687621603 0.3382891377 3.5923317444
O 6.9635588948 5.6332170402 1.2109089295
O 1.6637790056 3.4175877967 1.415795049
O 3.7600725053 3.1320725408 3.668070406
CELL_PARAMETERS {angstrom}
10.4063 0 0
0 6.2187 0
0 0 4.9469
!End