&CONTROL
calculation = "scf"
etot_conv_thr = 1.0d-5
forc_conv_thr = 1.0d-4
pseudo_dir = '/opt/QEpot/SSSP_precision_pseudos/'
disk_io = 'none'
tprnfor = .true.
tstress = .true.
verbosity = 'high'
/
!controlend

&SYSTEM
ntyp = 4
occupations = 'smearing'
smearing = 'cold'
degauss =   7.3498618000d-03
ecutrho =   1.080d+03
ecutwfc =   1.000d+02
ibrav = 0
nat = 25
nosym = .false.
starting_magnetization(1) =   3.1250000000d-01
starting_magnetization(2) =   0.0000000000d+00
starting_magnetization(3) =   0.0000000000d+00
starting_magnetization(4) =   0.0000000000d+00
nspin = 2
!systemend
/

&ELECTRONS
conv_thr =   2.0000000000d-10
electron_maxstep = 1000
mixing_beta =   4.0000000000d-01
/
K_POINTS {automatic}
5 7 9 0 0 0
ATOMIC_SPECIES
Fe  55.845  Fe.pbe-spn-kjpaw_psl.0.2.1.UPF
Na  22.98977  Na_ONCV_PBE-1.0.oncvpsp.upf
O  15.9994  O.pbe-n-kjpaw_psl.0.1.UPF
P  30.973761  P.pbe-n-rrkjus_psl.1.0.0.UPF
ATOMIC_POSITIONS {angstrom}
Na -1.9673e-05 -7.672e-07 2.4734663485
Fe 3.1186181843 4.8088582001 4.2168525967
Fe 2.3668096562 2.1086846364 2.5211792511
Fe 7.2877423071 1.409872365 0.7300739798
Fe 8.039551429 4.1100458771 2.4257511354
P 0.9760847764 4.0633498443 1.3216059358
P 4.1395564357 1.5635490464 4.6790518649
P 9.4302795361 2.1553827516 3.625343804
P 6.266804027 4.6551809788 0.2678677676
O 1.8365590586 4.2686162718 2.6444234996
O 3.7356334697 1.5599381997 1.2131685692
O 8.569800822 1.9501140641 2.3024914614
O 6.6707270874 4.6587923979 3.7337659204
O 4.7481272553 4.8290778843 0.4318107019
O 0.5167277424 1.8259915529 3.3994761889
O 5.6582349876 1.3896526682 4.5151184987
O 9.8896310417 4.392739555 1.5474509432
O 1.5393113249 5.1151418931 0.3206819583
O 3.3368370329 0.5115206293 3.8016281995
O 9.1496042157 3.6155152136 4.0198112296
O 6.7811654684 3.3500687286 1.0301203043
O 8.8670514336 1.1035916157 4.6262448107
O 7.0695259085 5.7072116721 1.1453015468
O 1.256759546 2.6032125272 0.9271150284
O 3.6251969265 2.868660194 3.9168092426
CELL_PARAMETERS {angstrom}
10.4063 0 0
0 6.2187 0
0 0 4.9469
!End