&CONTROL
calculation = "scf"
etot_conv_thr = 1.0d-5
forc_conv_thr = 1.0d-4
pseudo_dir = '/opt/QEpot/SSSP_precision_pseudos/'
disk_io = 'none'
tprnfor = .true.
tstress = .true.
verbosity = 'high'
/
!controlend

&SYSTEM
ntyp = 4
occupations = 'smearing'
smearing = 'cold'
degauss =   7.3498618000d-03
ecutrho = 1.080d+03
ecutwfc = 1.000d+02
ibrav = 0
nat = 25
nosym = .false.
starting_magnetization(1) =   3.1250000000d-01
starting_magnetization(2) =   0.0000000000d+00
starting_magnetization(3) =   0.0000000000d+00
starting_magnetization(4) =   0.0000000000d+00
nspin = 2
!systemend
/

&ELECTRONS
conv_thr =   2.0000000000d-10
electron_maxstep = 1000
mixing_beta =   4.0000000000d-01
/
K_POINTS {automatic}
5 7 9 0 0 0
ATOMIC_SPECIES
Fe  55.845  Fe.pbe-spn-kjpaw_psl.0.2.1.UPF
Na  22.98977  Na_ONCV_PBE-1.0.oncvpsp.upf
O  15.9994  O.pbe-n-kjpaw_psl.0.1.UPF
P  30.973761  P.pbe-n-rrkjus_psl.1.0.0.UPF
ATOMIC_POSITIONS {angstrom}
Na 10.059403214487 0 2.391016012677
Fe 3.014668341073 4.6485632389 4.07628962741
Fe 2.287915242933 2.03839699408 2.437138434827
Fe 7.0448153488 1.36287681815 0.70573761594
Fe 7.77156844694 3.97304306297 2.344893590527
P 0.943543730397 3.92790338528 1.277550446527
P 4.001568186037 1.51143078207 4.52308176285
P 9.115939959477 2.08353667177 3.50450070684
P 6.057915503837 4.50000927498 0.258940698497
O 1.775337326983 4.12632800656 2.556277265873
O 3.611111669353 1.50793815286 1.17272893346
O 8.284136303467 1.88511205049 2.22574041347
O 6.44837202052 4.50350190419 3.609307873897
O 4.589853321993 4.66810633281 0.417416288963
O 0.499500665617 1.76512430689 3.286159216643
O 5.46963036788 1.34333372424 4.36461573639
O 9.559972964833 4.24631575016 1.495868026707
O 1.48799995889 4.94463720422 0.309993366083
O 3.22560438895 0.49446852955 3.674907395623
O 8.84461719333 3.49499770554 3.88581765264
O 6.555122620933 3.23840066969 0.99578524612
O 8.571483730983 1.06680285283 4.47203865927
O 6.833879300923 5.5169715275 1.10712462973
O 1.214866496543 2.5164363401 0.89620959071
O 3.50436106894 2.77303938736 3.786246779233
CELL_PARAMETERS {angstrom}
10.059423333333 0 0
0 6.01141 0
0 0 4.782003333333
!End