&CONTROL
calculation = "scf"
etot_conv_thr = 1.0d-5
forc_conv_thr = 1.0d-4
pseudo_dir = '/opt/QEpot/SSSP_precision_pseudos/'
disk_io = 'none'
tprnfor = .true.
tstress = .true.
verbosity = 'high'
/
!controlend

&SYSTEM
ntyp = 4
occupations = 'smearing'
smearing = 'cold'
degauss =   7.3498618000d-03
ecutrho = 1.080d+03
ecutwfc = 1.000d+02
ibrav = 0
nat = 25
nosym = .false.
starting_magnetization(1) =   3.1250000000d-01
starting_magnetization(2) =   0.0000000000d+00
starting_magnetization(3) =   0.0000000000d+00
starting_magnetization(4) =   0.0000000000d+00
nspin = 2
!systemend
/

&ELECTRONS
conv_thr =   2.0000000000d-10
electron_maxstep = 1000
mixing_beta =   4.0000000000d-01
/
K_POINTS {automatic}
5 7 9 0 0 0
ATOMIC_SPECIES
Fe  55.845  Fe.pbe-spn-kjpaw_psl.0.2.1.UPF
Na  22.98977  Na_ONCV_PBE-1.0.oncvpsp.upf
O  15.9994  O.pbe-n-kjpaw_psl.0.1.UPF
P  30.973761  P.pbe-n-rrkjus_psl.1.0.0.UPF
ATOMIC_POSITIONS {angstrom}
Na 10.92659314677 0 2.4734648407
Fe 3.27455354289 5.04930144915 4.2168513387
Fe 2.4851493156 2.21412087288 2.5211776912
Fe 7.6521270168 1.480366199025 0.7300733958
Fe 8.44153124409 4.315546775295 2.4257519902
P 1.024883707155 4.26651574608 1.3216039102
P 4.346530960695 1.641726539145 4.6790500995
P 9.901796852535 2.263151902095 3.6253455588
P 6.580149598995 4.88794110903 0.2678696881
O 1.928383648275 4.48204593816 2.6444247578
O 3.92241439947 1.63793282121 1.2131678622
O 8.9982859848 2.047621710015 2.3024900829
O 7.00426616022 4.891734826965 3.7337667661
O 4.98553033251 5.070529292535 0.4318099541
O 0.542561067825 1.917290195415 3.3994750517
O 5.94115022718 1.45913835564 4.5151197273
O 10.38410856525 4.61237745276 1.5474496828
O 1.616275817415 5.37089903217 0.3206827925
O 3.503673732825 0.537095126925 3.8016283403
O 9.607084192755 3.79629061119 4.0198113648
O 7.1202193986 3.517573141215 1.0301226684
O 9.310404742275 1.158768616005 4.6262468889
O 7.423006826865 5.99257252125 1.1453013411
O 1.319596366935 2.73337050735 0.9271133697
O 3.80646116109 3.01209450696 3.916807013
CELL_PARAMETERS {angstrom}
10.926615 0 0
0 6.529635 0
0 0 4.9469
!End