&CONTROL
calculation = "scf"
etot_conv_thr = 1.0d-5
forc_conv_thr = 1.0d-4
pseudo_dir = '/opt/QEpot/SSSP_precision_pseudos/'
disk_io = 'none'
tprnfor = .true.
tstress = .true.
verbosity = 'high'
/
!controlend

&SYSTEM
ntyp = 4
occupations = 'smearing'
smearing = 'cold'
degauss =   7.3498618000d-03
ecutrho = 1.080d+03
ecutwfc = 1.000d+02
ibrav = 0
nat = 25
nosym = .false.
starting_magnetization(1) =   3.1250000000d-01
starting_magnetization(2) =   0.0000000000d+00
starting_magnetization(3) =   0.0000000000d+00
starting_magnetization(4) =   0.0000000000d+00
nspin = 2
!systemend
/

&ELECTRONS
conv_thr =   2.0000000000d-10
electron_maxstep = 1000
mixing_beta =   4.0000000000d-01
/
K_POINTS {automatic}
5 7 9 0 0 0
ATOMIC_SPECIES
Fe  55.845  Fe.pbe-spn-kjpaw_psl.0.2.1.UPF
Na  22.98977  Na_ONCV_PBE-1.0.oncvpsp.upf
O  15.9994  O.pbe-n-kjpaw_psl.0.1.UPF
P  30.973761  P.pbe-n-rrkjus_psl.1.0.0.UPF
ATOMIC_POSITIONS {angstrom}
Na 9.88596522803 0 2.4734648407
Fe 2.96269130071 4.808858523 4.2168513387
Fe 2.2484684284 2.1086865456 2.5211776912
Fe 6.9233530152 1.4098725705 0.7300733958
Fe 7.63757588751 4.1100445479 2.4257519902
P 0.927275735045 4.0633483296 1.3216039102
P 3.932575631105 1.5635490849 4.6790500995
P 8.958768580865 2.1553827639 3.6253455588
P 5.953468684805 4.6551820086 0.2678696881
O 1.744728062725 4.2686151792 2.6444247578
O 3.54885112333 1.5599360202 1.2131678622
O 8.1413063672 1.9501159143 2.3024900829
O 6.33719319258 4.6587950733 3.7337667661
O 4.51071791989 4.8290755167 0.4318099541
O 0.490888585175 1.8259906623 3.3994750517
O 5.37532639602 1.3896555768 4.5151197273
O 9.39514584475 4.3927404312 1.5474496828
O 1.462344787185 5.1151419354 0.3206827925
O 3.169990520175 0.5115191685 3.8016283403
O 8.692123793445 3.6155148678 4.0198113648
O 6.4421032654 3.3500696583 1.0301226684
O 8.423699528725 1.1035891581 4.6262468889
O 6.716053795735 5.707211925 1.1453013411
O 1.193920522465 2.603210007 0.9271133697
O 3.44394105051 2.8686614352 3.916807013
CELL_PARAMETERS {angstrom}
9.885985 0 0
0 6.2187 0
0 0 4.9469
!End