&CONTROL
calculation = "scf"
etot_conv_thr = 1.0d-5
forc_conv_thr = 1.0d-4
pseudo_dir = '/opt/QEpot/SSSP_precision_pseudos/'
disk_io = 'none'
tprnfor = .true.
tstress = .true.
verbosity = 'high'
/
!controlend

&SYSTEM
ntyp = 4
occupations = 'smearing'
smearing = 'cold'
degauss =   7.3498618000d-03
ecutrho = 1.080d+03
ecutwfc = 1.000d+02
ibrav = 0
nat = 25
nosym = .false.
starting_magnetization(1) =   3.1250000000d-01
starting_magnetization(2) =   0.0000000000d+00
starting_magnetization(3) =   0.0000000000d+00
starting_magnetization(4) =   0.0000000000d+00
nspin = 2
!systemend
/

&ELECTRONS
conv_thr =   2.0000000000d-10
electron_maxstep = 1000
mixing_beta =   4.0000000000d-01
/
K_POINTS {automatic}
5 7 9 0 0 0
ATOMIC_SPECIES
Fe  55.845  Fe.pbe-spn-kjpaw_psl.0.2.1.UPF
Na  22.98977  Na_ONCV_PBE-1.0.oncvpsp.upf
O  15.9994  O.pbe-n-kjpaw_psl.0.1.UPF
P  30.973761  P.pbe-n-rrkjus_psl.1.0.0.UPF
ATOMIC_POSITIONS {angstrom}
Na 9.88596522803 5.907765 2.349791598665
Fe 2.96269130071 4.56841559685 4.006008771765
Fe 2.2484684284 2.00325221832 2.39511880664
Fe 6.9233530152 1.339378941975 0.69356972601
Fe 7.63757588751 3.904542320505 2.30446439069
P 0.927275735045 3.86018091312 1.25552371469
P 3.932575631105 1.485371630655 4.445097594525
P 8.958768580865 2.047613625705 3.44407828086
P 5.953468684805 4.42242290817 0.254476203695
O 1.744728062725 4.05518442024 2.51220351991
O 3.54885112333 1.48193921919 1.15250946909
O 8.1413063672 1.852610118585 2.187365578755
O 6.33719319258 4.425855319635 3.547078427795
O 4.51071791989 4.587621740865 0.410219456395
O 0.490888585175 1.734691129185 3.229501299115
O 5.37532639602 1.32017279796 4.289363740935
O 9.39514584475 4.17310340964 1.47007719866
O 1.462344787185 4.85938483863 0.304648652875
O 3.169990520175 0.485943210075 3.611546923285
O 8.692123793445 3.43473912441 3.81882079656
O 6.4421032654 3.182566175385 0.97861653498
O 8.423699528725 1.048409700195 4.394934544455
O 6.716053795735 5.42185132875 1.088036274045
O 1.193920522465 2.47304950665 0.880757701215
O 3.44394105051 2.72522836344 3.72096666235
CELL_PARAMETERS {angstrom}
9.885985 0 0
0 5.907765 0
0 0 4.699555
!End