&CONTROL
calculation = "scf"
etot_conv_thr = 1.0d-5
forc_conv_thr = 1.0d-4
pseudo_dir = '/opt/QEpot/SSSP_precision_pseudos/'
disk_io = 'none'
tprnfor = .true.
tstress = .true.
verbosity = 'high'
/
!controlend

&SYSTEM
ntyp = 4
occupations = 'smearing'
smearing = 'cold'
degauss =   7.3498618000d-03
ecutrho = 1.080d+03
ecutwfc = 1.000d+02
ibrav = 0
nat = 25
nosym = .false.
starting_magnetization(1) =   3.1250000000d-01
starting_magnetization(2) =   0.0000000000d+00
starting_magnetization(3) =   0.0000000000d+00
starting_magnetization(4) =   0.0000000000d+00
nspin = 2
!systemend
/

&ELECTRONS
conv_thr =   2.0000000000d-10
electron_maxstep = 1000
mixing_beta =   4.0000000000d-01
/
K_POINTS {automatic}
5 7 9 0 0 0
ATOMIC_SPECIES
Fe  55.845  Fe.pbe-spn-kjpaw_psl.0.2.1.UPF
Na  22.98977  Na_ONCV_PBE-1.0.oncvpsp.upf
O  15.9994  O.pbe-n-kjpaw_psl.0.1.UPF
P  30.973761  P.pbe-n-rrkjus_psl.1.0.0.UPF
ATOMIC_POSITIONS {angstrom}
Na 10.753155160313 6.42599 2.4734648407
Fe 3.222576502527 4.9691538071 4.2168513387
Fe 2.445702501067 2.17897609712 2.5211776912
Fe 7.5306646832 1.45686832285 0.7300733958
Fe 8.30753868466 4.24704603283 2.4257519902
P 1.008615711803 4.19879327392 1.3216039102
P 4.277538405763 1.61566738773 4.6790500995
P 9.744625473923 2.22722885603 3.6253455588
P 6.475702779963 4.81035474222 0.2678696881
O 1.897774384017 4.41090235184 2.6444247578
O 3.860153853447 1.61193388754 1.2131678622
O 8.855456048533 2.01511977811 2.3024900829
O 6.89308733228 4.81408824241 3.7337667661
O 4.906394930407 4.99004470059 0.4318099541
O 0.533948987383 1.88685701771 3.3994750517
O 5.84684625532 1.43597742936 4.5151197273
O 10.219281445167 4.53916511224 1.5474496828
O 1.59062064571 5.28564666658 0.3206827925
O 3.44805986405 0.52856980745 3.8016283403
O 9.45459079287 3.73603203006 4.0198113648
O 7.007200043067 3.46173864691 1.0301226684
O 9.162620540017 1.14037546337 4.6262468889
O 7.305181321677 5.8974523225 1.1453013411
O 1.298650392857 2.6899836739 0.9271133697
O 3.74604114266 2.96428348304 3.916807013
CELL_PARAMETERS {angstrom}
10.753176666667 0 0
0 6.42599 0
0 0 4.9469
!End