&CONTROL
calculation = "scf"
etot_conv_thr = 1.0d-5
forc_conv_thr = 1.0d-4
pseudo_dir = '/opt/QEpot/SSSP_precision_pseudos/'
disk_io = 'none'
tprnfor = .true.
tstress = .true.
verbosity = 'high'
/
!controlend

&SYSTEM
ntyp = 4
occupations = 'smearing'
smearing = 'cold'
degauss =   7.3498618000d-03
ecutrho =   1.080d+03
ecutwfc =   1.000d+02
ibrav = 0
nat = 25
nosym = .false.
starting_magnetization(1) =   3.1250000000d-01
starting_magnetization(2) =   0.0000000000d+00
starting_magnetization(3) =   0.0000000000d+00
starting_magnetization(4) =   0.0000000000d+00
nspin = 2
!systemend
/

&ELECTRONS
conv_thr =   2.0000000000d-10
electron_maxstep = 1000
mixing_beta =   4.0000000000d-01
/
K_POINTS {automatic}
5 7 9 0 0 0
ATOMIC_SPECIES
Fe  55.845  Fe.pbe-spn-kjpaw_psl.0.2.1.UPF
Na  22.98977  Na_ONCV_PBE-1.0.oncvpsp.upf
O  15.9994  O.pbe-n-kjpaw_psl.0.1.UPF
P  30.973761  P.pbe-n-rrkjus_psl.1.0.0.UPF
ATOMIC_POSITIONS {angstrom}
Na 0.4331301959 0.1081107277 -0.0755117722
Fe 3.1579959783 3.9968033536 5.0083671623
Fe 2.3185711796 1.5050418994 2.2091938622
Fe 7.5117771933 1.6160563446 0.2280887145
Fe 8.1329820065 4.7301275826 2.7783726936
P 1.1830366512 4.6299341844 2.3490875165
P 4.292966609 1.6451213611 4.2346828006
P 9.3364639971 1.6011443633 2.9317958156
P 6.3205798084 4.6310622065 0.5193662319
O 1.6074578391 4.5835143186 3.8379043616
O 3.6126510979 1.8881496779 0.6852066833
O 9.0856981075 1.5212783485 1.4100953169
O 6.6409538187 4.6834911092 3.9575194771
O 4.784208118 4.7652895861 0.7251928591
O 0.4608246388 1.6497123032 3.1998123965
O 5.7881003711 1.3382787243 4.3438902913
O 10.0517441869 4.6268338109 2.179881049
O 1.763174543 5.8903591219 1.612409973
O 3.5106190877 0.5647923809 3.4428933956
O 8.553765406 2.7702644557 3.6386768014
O 6.9108318876 3.3239017068 1.1691567098
O 8.7175789948 0.3536926445 3.7038133024
O 7.1101150187 5.7664092343 1.2831131375
O 1.827587258 3.4321139021 1.5426743971
O 3.9747293962 3.0032846519 3.498638548
CELL_PARAMETERS {angstrom}
10.4063 0 0
0 6.2187 0
0 0 4.9469
!End