&CONTROL
calculation = "scf"
etot_conv_thr = 1.0d-5
forc_conv_thr = 1.0d-4
pseudo_dir = '/opt/QEpot/SSSP_precision_pseudos/'
disk_io = 'none'
tprnfor = .true.
tstress = .true.
verbosity = 'high'
/
!controlend

&SYSTEM
ntyp = 4
occupations = 'smearing'
smearing = 'cold'
degauss =   7.3498618000d-03
ecutrho =   1.080d+03
ecutwfc =   1.000d+02
ibrav = 0
nat = 25
nosym = .false.
starting_magnetization(1) =   3.1250000000d-01
starting_magnetization(2) =   0.0000000000d+00
starting_magnetization(3) =   0.0000000000d+00
starting_magnetization(4) =   0.0000000000d+00
nspin = 2
!systemend
/

&ELECTRONS
conv_thr =   2.0000000000d-10
electron_maxstep = 1000
mixing_beta =   4.0000000000d-01
/
K_POINTS {automatic}
5 7 9 0 0 0
ATOMIC_SPECIES
Fe  55.845  Fe.pbe-spn-kjpaw_psl.0.2.1.UPF
Na  22.98977  Na_ONCV_PBE-1.0.oncvpsp.upf
O  15.9994  O.pbe-n-kjpaw_psl.0.1.UPF
P  30.973761  P.pbe-n-rrkjus_psl.1.0.0.UPF
ATOMIC_POSITIONS {angstrom}
Na -0.0954071939 -0.6447155742 4.0705450135
Fe 3.107982274 4.7875580303 4.2425520343
Fe 2.2645572142 1.8833966811 2.3839662672
Fe 7.2772577049 1.432942627 0.5937251046
Fe 8.1452878467 4.1435595576 2.3222712069
P 1.0035067494 4.3586863561 1.5311858523
P 4.0914270853 1.5643511207 4.5517598475
P 9.4524223159 2.0118543717 3.3969676284
P 6.3246983704 4.6621683693 0.1717823745
O 1.6703696796 4.5218620012 2.9198888076
O 3.6584689123 1.5409071616 1.0788605323
O 8.620611401 2.0586153841 2.0578543249
O 6.8065942838 4.66016692 3.6597140436
O 4.7979513969 4.7795279202 0.2823114641
O 0.4854789908 1.4729200786 3.2313248531
O 5.6200096588 1.4696133126 4.4260200883
O 9.9102776056 4.8028507487 1.5976324533
O 1.7174041928 5.3312997415 0.5431981958
O 3.3741687753 0.4502767976 3.6860121026
O 9.3224127314 3.4680877084 3.9042822981
O 6.8355737312 3.3802193554 0.9535505479
O 8.7263129327 1.0101145141 4.3451864418
O 7.0524418495 5.7515740593 1.0556478285
O 1.2154775921 2.9040726807 1.0524811377
O 3.4910338991 2.8228580765 3.7790824011
CELL_PARAMETERS {angstrom}
10.4063 0 0
0 6.2187 0
0 0 4.9469
!End