&CONTROL
calculation = "scf"
etot_conv_thr = 1.0d-5
forc_conv_thr = 1.0d-4
pseudo_dir = '/opt/QEpot/SSSP_precision_pseudos/'
disk_io = 'none'
tprnfor = .true.
tstress = .true.
verbosity = 'high'
/
!controlend

&SYSTEM
ntyp = 4
occupations = 'smearing'
smearing = 'cold'
degauss =   7.3498618000d-03
ecutrho = 1.080d+03
ecutwfc = 1.000d+02
ibrav = 0
nat = 25
nosym = .false.
starting_magnetization(1) =   3.1250000000d-01
starting_magnetization(2) =   0.0000000000d+00
starting_magnetization(3) =   0.0000000000d+00
starting_magnetization(4) =   0.0000000000d+00
nspin = 2
!systemend
/

&ELECTRONS
conv_thr =   2.0000000000d-10
electron_maxstep = 1000
mixing_beta =   4.0000000000d-01
/
K_POINTS {automatic}
5 7 9 0 0 0
ATOMIC_SPECIES
Fe  55.845  Fe.pbe-spn-kjpaw_psl.0.2.1.UPF
Na  22.98977  Na_ONCV_PBE-1.0.oncvpsp.upf
O  15.9994  O.pbe-n-kjpaw_psl.0.1.UPF
P  30.973761  P.pbe-n-rrkjus_psl.1.0.0.UPF
ATOMIC_POSITIONS {angstrom}
Na 9.79535028952 5.29528337139 4.0705467712
Fe 2.95258782404 4.548181501725 4.2425504842
Fe 2.15132873979 1.7892257079 2.3839655259
Fe 6.913397828305 1.361296750125 0.593726938
Fe 7.738027381095 3.93637926609 2.322272736
P 0.953335191505 4.1407524885 1.5311842756
P 3.88685295048 1.48613373234 4.5517614156
P 8.979805956945 1.911262409505 3.3969669734
P 6.00846441936 4.429057328265 0.1717811025
O 1.586848882275 4.295766334335 2.9198879374
O 3.475546544555 1.46386145829 1.0788595272
O 8.189579631955 1.95568289454 2.0578559841
O 6.46626461274 4.4271609357 3.6597116731
O 4.55805201607 4.540548669345 0.2823096892
O 0.46120097222 1.399271863545 3.2313249738
O 5.33900528713 1.39613484033 4.4260211114
O 9.41475963899 4.56270869586 1.5976310364
O 1.631533534475 5.064732842265 0.5431993014
O 3.205461434355 0.427763540355 3.6860143404
O 8.856290460355 3.294683739555 3.9042814622
O 6.493797080965 3.211207020105 0.9535496033
O 8.290001467585 0.95961008448 4.3451887654
O 6.699821008365 5.46399732426 1.0556486724
O 1.15470281997 2.75886717735 1.0524826564
O 3.316481045905 2.681717674215 3.7790803701
CELL_PARAMETERS {angstrom}
9.885985 0 0
0 5.907765 0
0 0 4.9469
!End