&CONTROL
calculation = "scf"
etot_conv_thr = 1.0d-5
forc_conv_thr = 1.0d-4
pseudo_dir = '/opt/QEpot/SSSP_precision_pseudos/'
disk_io = 'none'
tprnfor = .true.
tstress = .true.
verbosity = 'high'
/
!controlend

&SYSTEM
ntyp = 4
occupations = 'smearing'
smearing = 'cold'
degauss =   7.3498618000d-03
ecutrho = 1.080d+03
ecutwfc = 1.000d+02
ibrav = 0
nat = 25
nosym = .false.
starting_magnetization(1) =   3.1250000000d-01
starting_magnetization(2) =   0.0000000000d+00
starting_magnetization(3) =   0.0000000000d+00
starting_magnetization(4) =   0.0000000000d+00
nspin = 2
!systemend
/

&ELECTRONS
conv_thr =   2.0000000000d-10
electron_maxstep = 1000
mixing_beta =   4.0000000000d-01
/
K_POINTS {automatic}
5 7 9 0 0 0
ATOMIC_SPECIES
Fe  55.845  Fe.pbe-spn-kjpaw_psl.0.2.1.UPF
Na  22.98977  Na_ONCV_PBE-1.0.oncvpsp.upf
O  15.9994  O.pbe-n-kjpaw_psl.0.1.UPF
P  30.973761  P.pbe-n-rrkjus_psl.1.0.0.UPF
ATOMIC_POSITIONS {angstrom}
Na 9.967198540213 5.38818307966 4.0705467712
Fe 3.004387610427 4.62797415965 4.2425504842
Fe 2.18907134926 1.8206156326 2.3839655259
Fe 7.034685509503 1.38517914925 0.593726938
Fe 7.87378224743 4.00543855146 2.322272736
P 0.970060370303 4.213397269 1.5311842756
P 3.95504335312 1.51220625396 4.5517614156
P 9.13734641233 1.94479332897 3.3969669734
P 6.11387607584 4.50676008841 0.1717811025
O 1.61468833635 4.37113065599 2.9198879374
O 3.536521045337 1.48954323826 1.0788595272
O 8.333256467603 1.98999312076 2.0578559841
O 6.57970785156 4.5048304258 3.6597116731
O 4.638017840913 4.62020741793 0.2823096892
O 0.469292217347 1.42382049273 3.2313249738
O 5.432672046553 1.42062843402 4.4260211114
O 9.579930860727 4.64275621684 1.5976310364
O 1.660156929817 5.15358780441 0.5431993014
O 3.26169759987 0.43526816387 3.6860143404
O 9.011663977203 3.35248520867 3.9042814622
O 6.607723345543 3.26754398537 0.9535496033
O 8.435440089823 0.97644534912 4.3451887654
O 6.81736172781 5.55985692644 1.0556486724
O 1.17496076418 2.8072683559 1.0524826564
O 3.374664923903 2.72876535271 3.7790803701
CELL_PARAMETERS {angstrom}
10.059423333333 0 0
0 6.01141 0
0 0 4.9469
!End