&CONTROL
calculation = "scf"
etot_conv_thr = 1.0d-5
forc_conv_thr = 1.0d-4
pseudo_dir = '/opt/QEpot/SSSP_precision_pseudos/'
disk_io = 'none'
tprnfor = .true.
tstress = .true.
verbosity = 'high'
/
!controlend

&SYSTEM
ntyp = 4
occupations = 'smearing'
smearing = 'cold'
degauss =   7.3498618000d-03
ecutrho = 1.080d+03
ecutwfc = 1.000d+02
ibrav = 0
nat = 25
nosym = .false.
starting_magnetization(1) =   3.1250000000d-01
starting_magnetization(2) =   0.0000000000d+00
starting_magnetization(3) =   0.0000000000d+00
starting_magnetization(4) =   0.0000000000d+00
nspin = 2
!systemend
/

&ELECTRONS
conv_thr =   2.0000000000d-10
electron_maxstep = 1000
mixing_beta =   4.0000000000d-01
/
K_POINTS {automatic}
5 7 9 0 0 0
ATOMIC_SPECIES
Fe  55.845  Fe.pbe-spn-kjpaw_psl.0.2.1.UPF
Na  22.98977  Na_ONCV_PBE-1.0.oncvpsp.upf
O  15.9994  O.pbe-n-kjpaw_psl.0.1.UPF
P  30.973761  P.pbe-n-rrkjus_psl.1.0.0.UPF
ATOMIC_POSITIONS {angstrom}
Na 10.482743292293 5.66688220447 4.0705467712
Fe 3.159786969587 4.867352133425 4.2425504842
Fe 2.30229917767 1.9147854067 2.3839655259
Fe 7.398548553098 1.456826346625 0.593726938
Fe 8.281046846435 4.21261640757 2.322272736
P 1.020235906698 4.4313316105 1.5311842756
P 4.15961456104 1.59042381882 4.5517614156
P 9.609967778485 2.045386087365 3.3969669734
P 6.43011104528 4.739868368845 0.1717811025
O 1.698206698575 4.597223620955 2.9198879374
O 3.719444547682 1.56658857817 1.0788595272
O 8.764286974548 2.09292379942 2.0578559841
O 6.92003756802 4.7378388961 3.6597116731
O 4.877915315443 4.859183663685 0.2823096892
O 0.493565952727 1.497466380285 3.2313249738
O 5.713672324823 1.49410921509 4.4260211114
O 10.075444525937 4.88289877978 1.5976310364
O 1.746027115842 5.420152690845 0.5431993014
O 3.430406096415 0.457782034415 3.6860143404
O 9.477784527748 3.525889616015 3.9042814622
O 6.949502139278 3.436554881165 0.9535496033
O 8.871755956538 1.02695114304 4.3451887654
O 7.169983886145 5.84743573298 1.0556486724
O 1.23573459681 2.95247189155 1.0524826564
O 3.549216557898 2.869908388195 3.7790803701
CELL_PARAMETERS {angstrom}
10.579738333333 0 0
0 6.322345 0
0 0 4.9469
!End