&CONTROL
calculation = "scf"
etot_conv_thr = 1.0d-5
forc_conv_thr = 1.0d-4
pseudo_dir = '/opt/QEpot/SSSP_precision_pseudos/'
disk_io = 'none'
tprnfor = .true.
tstress = .true.
verbosity = 'high'
/
!controlend

&SYSTEM
ntyp = 4
occupations = 'smearing'
smearing = 'cold'
degauss =   7.3498618000d-03
ecutrho = 1.080d+03
ecutwfc = 1.000d+02
ibrav = 0
nat = 25
nosym = .false.
starting_magnetization(1) =   3.1250000000d-01
starting_magnetization(2) =   0.0000000000d+00
starting_magnetization(3) =   0.0000000000d+00
starting_magnetization(4) =   0.0000000000d+00
nspin = 2
!systemend
/

&ELECTRONS
conv_thr =   2.0000000000d-10
electron_maxstep = 1000
mixing_beta =   4.0000000000d-01
/
K_POINTS {automatic}
5 7 9 0 0 0
ATOMIC_SPECIES
Fe  55.845  Fe.pbe-spn-kjpaw_psl.0.2.1.UPF
Na  22.98977  Na_ONCV_PBE-1.0.oncvpsp.upf
O  15.9994  O.pbe-n-kjpaw_psl.0.1.UPF
P  30.973761  P.pbe-n-rrkjus_psl.1.0.0.UPF
ATOMIC_POSITIONS {angstrom}
Na 10.82643979368 5.85268162101 4.0705467712
Fe 3.26338654236 5.026937449275 4.2425504842
Fe 2.37778439661 1.9775652561 2.3839655259
Fe 7.641123915495 1.504591144875 0.593726938
Fe 8.552556579105 4.35073497831 2.322272736
P 1.053686264295 4.5766211715 1.5311842756
P 4.29599536632 1.64256886206 4.5517614156
P 9.925048689255 2.112447926295 3.3969669734
P 6.64093435824 4.895273889135 0.1717811025
O 1.753885606725 4.747952264265 2.9198879374
O 3.841393549245 1.61795213811 1.0788595272
O 9.051640645845 2.16154425186 2.0578559841
O 7.14692404566 4.8931778763 3.6597116731
O 5.03784696513 5.018501160855 0.2823096892
O 0.50974844298 1.546563638655 3.2313249738
O 5.90100584367 1.54309640247 4.4260211114
O 10.40578696941 5.04299382174 1.5976310364
O 1.803273906525 5.597862615135 0.5431993014
O 3.542878427445 0.472791281445 3.6860143404
O 9.788531561445 3.641492554245 3.9042814622
O 7.177354668435 3.549228811695 0.9535496033
O 9.162633201015 1.06062167232 4.3451887654
O 7.405065325035 6.03915493734 1.0556486724
O 1.27625048523 3.04927424865 1.0524826564
O 3.665584313895 2.964003745185 3.7790803701
CELL_PARAMETERS {angstrom}
10.926615 0 0
0 6.529635 0
0 0 4.9469
!End