&CONTROL
calculation = "scf"
etot_conv_thr = 1.0d-5
forc_conv_thr = 1.0d-4
pseudo_dir = '/opt/QEpot/SSSP_precision_pseudos/'
disk_io = 'none'
tprnfor = .true.
tstress = .true.
verbosity = 'high'
/
!controlend

&SYSTEM
ntyp = 4
occupations = 'smearing'
smearing = 'cold'
degauss =   7.3498618000d-03
ecutrho = 1.080d+03
ecutwfc = 1.000d+02
ibrav = 0
nat = 25
nosym = .false.
starting_magnetization(1) =   3.1250000000d-01
starting_magnetization(2) =   0.0000000000d+00
starting_magnetization(3) =   0.0000000000d+00
starting_magnetization(4) =   0.0000000000d+00
nspin = 2
!systemend
/

&ELECTRONS
conv_thr =   2.0000000000d-10
electron_maxstep = 1000
mixing_beta =   4.0000000000d-01
/
K_POINTS {automatic}
5 7 9 0 0 0
ATOMIC_SPECIES
Fe  55.845  Fe.pbe-spn-kjpaw_psl.0.2.1.UPF
Na  22.98977  Na_ONCV_PBE-1.0.oncvpsp.upf
O  15.9994  O.pbe-n-kjpaw_psl.0.1.UPF
P  30.973761  P.pbe-n-rrkjus_psl.1.0.0.UPF
ATOMIC_POSITIONS {angstrom}
Na 10.654591542987 5.5739824962 4.0705467712
Fe 3.211586755973 4.7875594755 4.2425504842
Fe 2.34004178714 1.883395482 2.3839655259
Fe 7.519836234297 1.4329439475 0.593726938
Fe 8.41680171277 4.1435571222 2.322272736
P 1.036961085497 4.35868683 1.5311842756
P 4.22780496368 1.5643512972 4.5517614156
P 9.76750823387 2.0118551679 3.3969669734
P 6.53552270176 4.6621656087 0.1717811025
O 1.72604615265 4.5218592993 2.9198879374
O 3.780419048463 1.5409067982 1.0788595272
O 8.907963810197 2.0586135732 2.0578559841
O 7.03348080684 4.660169406 3.6597116731
O 4.957881140287 4.7795249151 0.2823096892
O 0.501657197853 1.4729177511 3.2313249738
O 5.807339084247 1.4696156214 4.4260211114
O 10.240615747673 4.8028512588 1.5976310364
O 1.774650511183 5.3312977287 0.5431993014
O 3.48664226193 0.4502774109 3.6860143404
O 9.633158044597 3.4680881469 3.9042814622
O 7.063428403857 3.3802179159 0.9535496033
O 9.017194578777 1.0101158784 4.3451887654
O 7.28752460559 5.7515761308 1.0556486724
O 1.25599254102 2.904070713 1.0524826564
O 3.607400435897 2.8228607097 3.7790803701
CELL_PARAMETERS {angstrom}
10.753176666667 0 0
0 6.2187 0
0 0 4.9469
!End