&CONTROL
calculation = "scf"
disk_io = 'none'
pseudo_dir = '/opt/QEpot/SSSP_precision_pseudos/'
etot_conv_thr = 1.0d-5
forc_conv_thr = 1.0d-4
tprnfor = .true.
tstress = .true.
verbosity = 'high'
/
!controlend

&SYSTEM
occupations = "smearing"
nat = 2
smearing = "gaussian"
ntyp = 1
ibrav = 0
degauss =   2.2049585400d-02
ecutrho =   1.080d+03
ecutwfc =   1.000d+02
!systemend
/

&ELECTRONS
conv_thr =   2.0000000000d-10
electron_maxstep = 1000
mixing_beta =   4.0000000000d-01
/
K_POINTS {automatic}
ATOMIC_SPECIES
ATOMIC_POSITIONS {angstrom}
CELL_PARAMETERS {angstrom}
!End