&CONTROL
calculation = "scf"
disk_io = 'none'
pseudo_dir = '/opt/QEpot/SSSP_precision_pseudos/'
etot_conv_thr = 1.0d-5
forc_conv_thr = 1.0d-4
tprnfor = .true.
tstress = .true.
verbosity = 'high'
/
!controlend

&SYSTEM
occupations = 'smearing'
nat = 2
smearing = 'cold'
ntyp = 1
ibrav = 0
degauss =   7.3498618000d-03
ecutrho =   1.080d+03
ecutwfc =   1.000d+02
starting_magnetization(1) =   3.1250000000d-01
starting_magnetization(2) =   0.0000000000d-01
starting_magnetization(3) =   0.0000000000d-01
starting_magnetization(4) =   0.0000000000d-01
!systemend
/

&ELECTRONS
conv_thr =   2.0000000000d-10
electron_maxstep = 1000
mixing_beta =   4.0000000000d-01
/
K_POINTS {automatic}
ATOMIC_SPECIES
Fe  55.845  Fe.pbe-spn-kjpaw_psl.0.2.1.UPF
Na  22.98977  Na_ONCV_PBE-1.0.oncvpsp.upf
O  15.9994  O.pbe-n-kjpaw_psl.0.1.UPF
P  30.973761  P.pbe-n-rrkjus_psl.1.0.0.UPF
ATOMIC_POSITIONS {angstrom}
CELL_PARAMETERS {angstrom}
!End