&CONTROL
calculation = "scf"
etot_conv_thr = 1.0d-5
forc_conv_thr = 1.0d-4
pseudo_dir = '/opt/QEpot/SSSP_precision_pseudos/'
disk_io = 'none'
tprnfor = .true.
tstress = .true.
verbosity = 'high'
/
!controlend

&SYSTEM
ntyp = 4
occupations = 'smearing'
smearing = 'cold'
degauss =   7.3498618000d-03
ecutrho =   1.080d+03
ecutwfc =   1.000d+02
ibrav = 0
nat = 25
nosym = .false.
starting_magnetization(1) =   3.1250000000d-01
starting_magnetization(2) =   0.0000000000d+00
starting_magnetization(3) =   0.0000000000d+00
starting_magnetization(4) =   0.0000000000d+00
nspin = 2
!systemend
/

&ELECTRONS
conv_thr =   2.0000000000d-10
electron_maxstep = 1000
mixing_beta =   4.0000000000d-01
/
K_POINTS {automatic}
5 7 9 0 0 0
ATOMIC_SPECIES
Fe  55.845  Fe.pbe-spn-kjpaw_psl.0.2.1.UPF
Na  22.98977  Na_ONCV_PBE-1.0.oncvpsp.upf
O  15.9994  O.pbe-n-kjpaw_psl.0.1.UPF
P  30.973761  P.pbe-n-rrkjus_psl.1.0.0.UPF
ATOMIC_POSITIONS {angstrom}
Na 3.1657838812 0.0049235725 0.5018496737
Fe 3.0789271362 3.7527801759 4.830671939
Fe 1.7852908719 1.5884642219 2.3598401608
Fe 7.4085755335 1.5488187885 0.2939315381
Fe 8.0564538961 4.7641575578 2.8949621098
P 1.0304337248 4.6491007152 2.3926344445
P 4.4109929292 1.8317377055 3.7836744624
P 9.1490570082 1.5770135696 3.0876465164
P 6.1911588554 4.5353067919 0.5475875529
O 1.6679820842 4.6190023124 3.8206539507
O 3.6927003031 1.9911265654 0.2690126444
O 8.9126155101 1.5170360371 1.5709390357
O 6.5416736694 4.6519281733 3.9978063303
O 4.6458390613 4.6936961351 0.6792154277
O 0.2538829476 1.691804654 3.4473042525
O 5.8285109963 1.3180672298 4.0129950784
O 9.9114904552 4.4737461318 2.3904311602
O 1.3756544079 5.9873413147 1.6763576535
O 3.5132772161 0.8203786909 2.9908509166
O 8.3741008755 2.7393459468 3.7978939201
O 6.6868661965 3.1854274666 1.1570249757
O 8.5395078888 0.3142209123 3.8125226982
O 6.9702483705 5.6553277313 1.3405230069
O 1.704557927 3.4645380262 1.5548107026
O 4.1888926448 3.2494775736 3.2017226458
CELL_PARAMETERS {angstrom}
10.4063 0 0
0 6.2187 0
0 0 4.9469
!End