&CONTROL
calculation = "scf"
etot_conv_thr = 1.0d-5
forc_conv_thr = 1.0d-4
pseudo_dir = '/opt/QEpot/SSSP_precision_pseudos/'
disk_io = 'none'
tprnfor = .true.
tstress = .true.
verbosity = 'high'
/
!controlend

&SYSTEM
ntyp = 4
occupations = 'smearing'
smearing = 'cold'
degauss =   7.3498618000d-03
ecutrho =   1.080d+03
ecutwfc =   1.000d+02
ibrav = 0
nat = 25
nosym = .false.
starting_magnetization(1) =   3.1250000000d-01
starting_magnetization(2) =   0.0000000000d+00
starting_magnetization(3) =   0.0000000000d+00
starting_magnetization(4) =   0.0000000000d+00
nspin = 2
!systemend
/

&ELECTRONS
conv_thr =   2.0000000000d-10
electron_maxstep = 1000
mixing_beta =   4.0000000000d-01
/
K_POINTS {automatic}
5 7 9 0 0 0
ATOMIC_SPECIES
Fe  55.845  Fe.pbe-spn-kjpaw_psl.0.2.1.UPF
Na  22.98977  Na_ONCV_PBE-1.0.oncvpsp.upf
O  15.9994  O.pbe-n-kjpaw_psl.0.1.UPF
P  30.973761  P.pbe-n-rrkjus_psl.1.0.0.UPF
ATOMIC_POSITIONS {angstrom}
Na -1.97787e-05 -4.24e-08 -3.185e-07
Fe 2.9840684676 4.6420368024 4.8977083554
Fe 2.3244183267 1.5828926078 2.4513821435
Fe 7.4222916973 1.5766940553 0.0492193196
Fe 8.0819429399 4.6358383578 2.4955498535
P 1.1249396718 4.6388286911 2.2030218152
P 4.0750629713 1.5475174717 4.6753068008
P 9.2814245249 1.5799039135 2.7439306235
P 6.3312979731 4.6712124018 0.2716130943
O 1.3408834175 4.6880990914 3.7317521789
O 3.8308111444 1.544145908 1.2492780173
O 9.0654762086 1.5306309285 1.2151632283
O 6.5755498046 4.6745847312 3.6976587597
O 4.8148460151 4.6739066837 0.573083505
O 0.395161351 1.5235347572 3.0808290405
O 5.5915159046 1.5448236417 4.3738466232
O 10.0111974294 4.6951960886 1.8660993306
O 1.8381042578 5.8476746079 1.4608592154
O 3.3238041673 0.3498551814 3.9670221138
O 8.5573799127 2.7991974248 3.4205620909
O 7.0625667084 3.4517458169 0.9714255801
O 8.5682585286 0.3710590747 3.4860687619
O 7.0825586891 5.8688771107 0.9799092711
O 1.8489840166 3.4195298567 1.5263651966
O 3.3437956507 2.7669828377 3.9755053994
CELL_PARAMETERS {angstrom}
10.4063 0 0
0 6.2187 0
0 0 4.9469
!End