&CONTROL
calculation = "scf"
etot_conv_thr = 1.0d-5
forc_conv_thr = 1.0d-4
pseudo_dir = '/opt/QEpot/SSSP_precision_pseudos/'
disk_io = 'none'
tprnfor = .true.
tstress = .true.
verbosity = 'high'
/
!controlend

&SYSTEM
ntyp = 4
occupations = 'smearing'
smearing = 'cold'
degauss =   7.3498618000d-03
ecutrho = 1.080d+03
ecutwfc = 1.000d+02
ibrav = 0
nat = 25
nosym = .false.
starting_magnetization(1) =   3.1250000000d-01
starting_magnetization(2) =   0.0000000000d+00
starting_magnetization(3) =   0.0000000000d+00
starting_magnetization(4) =   0.0000000000d+00
nspin = 2
!systemend
/

&ELECTRONS
conv_thr =   2.0000000000d-10
electron_maxstep = 1000
mixing_beta =   4.0000000000d-01
/
K_POINTS {automatic}
5 7 9 0 0 0
ATOMIC_SPECIES
Fe  55.845  Fe.pbe-spn-kjpaw_psl.0.2.1.UPF
Na  22.98977  Na_ONCV_PBE-1.0.oncvpsp.upf
O  15.9994  O.pbe-n-kjpaw_psl.0.1.UPF
P  30.973761  P.pbe-n-rrkjus_psl.1.0.0.UPF
ATOMIC_POSITIONS {angstrom}
Na 10.926593146770      0.000000000000       0.000000000000
Fe 3.133272410940       4.874137460640       4.897708026400
Fe 2.440634286090       1.662040233630       2.451381879100
Fe 7.793408148750       1.655530187535       0.049221655000
Fe 8.486035346985       4.867627414545       2.495547802300
P  1.181188934730       4.870768168980       2.203022764600
P  4.278818727540       1.624893140115       4.675305296200
P  9.745491624960       1.658899479195       2.743931651300
P  6.647861832150       4.904774508060       0.271614491400
O  1.407927122595       4.922502467085       3.731753377800
O  4.022349220260       1.621354077945       1.249280232200
O  9.518753437095       1.607165181090       1.215161462900
O  6.904331339430       4.908313570230       3.697659343000
O  5.055591787890       4.907601840015       0.573083524300
O  0.414916351395       1.599708337920       3.080830382000
O  5.871088771800       1.622065808160       4.373846157100
O  10.511753281680      4.929952780620       1.866099299400
O  1.930011713910       6.140057386995       1.460859145200
O  3.489993610845       0.367350735465       3.967022994900
O  8.985250533105       2.939158484010       3.420563686400
O  7.415696921430       3.624332673465       0.971427699900
O  8.996668845780       0.389610261180       3.486070536200
O  7.436686948845       6.162323442345       0.979911633400
O  1.941430026585       3.590509164165       1.526365995000
O  3.510983638260       2.905334974710       3.975506928400
CELL_PARAMETERS {angstrom}
10.926615 0 0
0 6.529635 0
0 0 4.9469
!End