&CONTROL
calculation = "scf"
etot_conv_thr = 1.0d-5
forc_conv_thr = 1.0d-4
pseudo_dir = '/opt/QEpot/SSSP_precision_pseudos/'
disk_io = 'none'
tprnfor = .true.
tstress = .true.
verbosity = 'high'
/
!controlend

&SYSTEM
ntyp = 4
occupations = 'smearing'
smearing = 'cold'
degauss =   7.3498618000d-03
ecutrho = 1.080d+03
ecutwfc = 1.000d+02
ibrav = 0
nat = 25
nosym = .false.
starting_magnetization(1) =   3.1250000000d-01
starting_magnetization(2) =   0.0000000000d+00
starting_magnetization(3) =   0.0000000000d+00
starting_magnetization(4) =   0.0000000000d+00
nspin = 2
!systemend
/

&ELECTRONS
conv_thr =   2.0000000000d-10
electron_maxstep = 1000
mixing_beta =   4.0000000000d-01
/
K_POINTS {automatic}
5 7 9 0 0 0
ATOMIC_SPECIES
Fe  55.845  Fe.pbe-spn-kjpaw_psl.0.2.1.UPF
Na  22.98977  Na_ONCV_PBE-1.0.oncvpsp.upf
O  15.9994  O.pbe-n-kjpaw_psl.0.1.UPF
P  30.973761  P.pbe-n-rrkjus_psl.1.0.0.UPF
ATOMIC_POSITIONS {angstrom}
Na 9.88596522803 0 0
Fe 2.83486551466 4.6420356768 4.8977080264
Fe 2.20819292551 1.5828954606 2.4513818791
Fe 7.05117880125 1.5766954167 0.049221655
Fe 7.677841504415 4.6358356329 2.4955478023
P 1.06869475047 4.6388268276 2.2030227646
P 3.87131218206 1.5475172763 4.6753052962
P 8.81734956544 1.5799042659 2.7439316513
P 6.01473213385 4.6712138172 0.2716144914
O 1.273838825205 4.6880975877 3.7317533778
O 3.63926834214 1.5441467409 1.2492802322
O 8.612205490705 1.5306335058 1.2151614629
O 6.24677597377 4.6745843526 3.697659343
O 4.57410685571 4.6739065143 0.5730835243
O 0.375400508405 1.5235317504 3.080830382
O 5.3119374602 1.5448245792 4.3738461571
O 9.51063392152 4.6951931244 1.8660992994
O 1.74620107449 5.8476737019 1.4608591452
O 3.157613266955 0.3498578433 3.9670229949
O 8.129512387095 2.7991985562 3.4205636864
O 6.70944007177 3.4517454033 0.9714276999
O 8.13984324142 0.3710573916 3.4860705362
O 6.728431048955 5.8688794689 0.9799116334
O 1.756531928815 3.4195325373 1.526365995
O 3.17660424414 2.7669856902 3.9755069284
CELL_PARAMETERS {angstrom}
9.885985 0 0
0 6.2187 0
0 0 4.9469
!End