&CONTROL
calculation = "scf"
etot_conv_thr = 1.0d-5
forc_conv_thr = 1.0d-4
pseudo_dir = '/opt/QEpot/SSSP_precision_pseudos/'
disk_io = 'none'
tprnfor = .true.
tstress = .true.
verbosity = 'high'
/
!controlend

&SYSTEM
ntyp = 4
occupations = 'smearing'
smearing = 'cold'
degauss =   7.3498618000d-03
ecutrho = 1.080d+03
ecutwfc = 1.000d+02
ibrav = 0
nat = 25
nosym = .false.
starting_magnetization(1) =   3.1250000000d-01
starting_magnetization(2) =   0.0000000000d+00
starting_magnetization(3) =   0.0000000000d+00
starting_magnetization(4) =   0.0000000000d+00
nspin = 2
!systemend
/

&ELECTRONS
conv_thr =   2.0000000000d-10
electron_maxstep = 1000
mixing_beta =   4.0000000000d-01
/
K_POINTS {automatic}
5 7 9 0 0 0
ATOMIC_SPECIES
Fe  55.845  Fe.pbe-spn-kjpaw_psl.0.2.1.UPF
Na  22.98977  Na_ONCV_PBE-1.0.oncvpsp.upf
O  15.9994  O.pbe-n-kjpaw_psl.0.1.UPF
P  30.973761  P.pbe-n-rrkjus_psl.1.0.0.UPF
ATOMIC_POSITIONS {angstrom}
Na 10.059403214487      0.000000000000       0.000000000000
Fe 2.884599997373       4.487301154240       4.734451092187
Fe 2.246933152273       1.530132278580       2.369669149797
Fe 7.174883692500       1.524138902810       0.047580933167
Fe 7.812540478177       4.481307778470       2.412362875557
P  1.087443781180       4.484199266680       2.129588672447
P  3.939229939640       1.495933367090       4.519461786327
P  8.972039908693       1.527240790370       2.652467262923
P  6.120253750233       4.515506689960       0.262560675020
O  1.296186874770       4.531827668110       3.607361598540
O  3.703115155160       1.492675182870       1.207637557793
O  8.763296815103       1.479612388940       1.174656080803
O  6.356368534713       4.518764874180       3.574404031567
O  4.654354344407       4.518109630490       0.553980740157
O  0.381986482237       1.472747358720       2.978136035933
O  5.405129345467       1.493330426560       4.228051285197
O  9.677487148213       4.538686686920       1.803895989420
O  1.776836181060       5.652751245170       1.412163840360
O  3.213009990937       0.338195915190       3.834788895070
O  8.272135411430       2.705891937660       3.306544896853
O  6.827149546713       3.336687223190       0.939046776570
O  8.282647508813       0.358688811880       3.369868184993
O  6.846473698937       5.673250153270       0.947247912287
O  1.787348278443       3.305548119390       1.475487128500
O  3.232334143160       2.674752833860       3.842990030787
CELL_PARAMETERS {angstrom}
10.059423333333 0 0
0 6.01141 0
0 0 4.782003333333
!End