&CONTROL
calculation = "scf"
etot_conv_thr = 1.0d-5
forc_conv_thr = 1.0d-4
pseudo_dir = '/opt/QEpot/SSSP_precision_pseudos/'
disk_io = 'none'
tprnfor = .true.
tstress = .true.
verbosity = 'high'
/
!controlend

&SYSTEM
ntyp = 4
occupations = 'smearing'
smearing = 'cold'
degauss =   7.3498618000d-03
ecutrho = 1.080d+03
ecutwfc = 1.000d+02
ibrav = 0
nat = 25
nosym = .false.
starting_magnetization(1) =   3.1250000000d-01
starting_magnetization(2) =   0.0000000000d+00
starting_magnetization(3) =   0.0000000000d+00
starting_magnetization(4) =   0.0000000000d+00
nspin = 2
!systemend
/

&ELECTRONS
conv_thr =   2.0000000000d-10
electron_maxstep = 1000
mixing_beta =   4.0000000000d-01
/
K_POINTS {automatic}
5 7 9 0 0 0
ATOMIC_SPECIES
Fe  55.845  Fe.pbe-spn-kjpaw_psl.0.2.1.UPF
Na  22.98977  Na_ONCV_PBE-1.0.oncvpsp.upf
O  15.9994  O.pbe-n-kjpaw_psl.0.1.UPF
P  30.973761  P.pbe-n-rrkjus_psl.1.0.0.UPF
ATOMIC_POSITIONS {angstrom}
Na 10.059403214487 0 0
Fe 2.884599997373 4.48730115424 4.8977080264
Fe 2.246933152273 1.53013227858 2.4513818791
Fe 7.1748836925 1.52413890281 0.049221655
Fe 7.812540478177 4.48130777847 2.4955478023
P 1.08744378118 4.48419926668 2.2030227646
P 3.93922993964 1.49593336709 4.6753052962
P 8.972039908693 1.52724079037 2.7439316513
P 6.120253750233 4.51550668996 0.2716144914
O 1.29618687477 4.53182766811 3.7317533778
O 3.70311515516 1.49267518287 1.2492802322
O 8.763296815103 1.47961238894 1.2151614629
O 6.356368534713 4.51876487418 3.697659343
O 4.654354344407 4.51810963049 0.5730835243
O 0.381986482237 1.47274735872 3.080830382
O 5.405129345467 1.49333042656 4.3738461571
O 9.677487148213 4.53868668692 1.8660992994
O 1.77683618106 5.65275124517 1.4608591452
O 3.213009990937 0.33819591519 3.9670229949
O 8.27213541143 2.70589193766 3.4205636864
O 6.827149546713 3.33668722319 0.9714276999
O 8.282647508813 0.35868881188 3.4860705362
O 6.846473698937 5.67325015327 0.9799116334
O 1.787348278443 3.30554811939 1.526365995
O 3.23233414316 2.67475283386 3.9755069284
CELL_PARAMETERS {angstrom}
10.059423333333 0 0
0 6.01141 0
0 0 4.9469
!End