&CONTROL
calculation = "scf"
etot_conv_thr = 1.0d-5
forc_conv_thr = 1.0d-4
pseudo_dir = '/opt/QEpot/SSSP_precision_pseudos/'
disk_io = 'none'
tprnfor = .true.
tstress = .true.
verbosity = 'high'
/
!controlend

&SYSTEM
ntyp = 4
occupations = 'smearing'
smearing = 'cold'
degauss =   7.3498618000d-03
ecutrho = 1.080d+03
ecutwfc = 1.000d+02
ibrav = 0
nat = 25
nosym = .false.
starting_magnetization(1) =   3.1250000000d-01
starting_magnetization(2) =   0.0000000000d+00
starting_magnetization(3) =   0.0000000000d+00
starting_magnetization(4) =   0.0000000000d+00 
nspin = 2
!systemend
/

&ELECTRONS
conv_thr =   2.0000000000d-10
electron_maxstep = 1000
mixing_beta =   4.0000000000d-01
/
K_POINTS {automatic}
5 7 9 0 0 0
ATOMIC_SPECIES
Fe  55.845  Fe.pbe-spn-kjpaw_psl.0.2.1.UPF
Na  22.98977  Na_ONCV_PBE-1.0.oncvpsp.upf
O  15.9994  O.pbe-n-kjpaw_psl.0.1.UPF
P  30.973761  P.pbe-n-rrkjus_psl.1.0.0.UPF
ATOMIC_POSITIONS {angstrom}
Na 10.92659314677 0 0
Fe 3.13327241094 4.87413746064 5.14259342772
Fe 2.44063428609 1.66204023363 2.573950973055
Fe 7.79340814875 1.655530187535 0.05168273775
Fe 8.486035346985 4.867627414545 2.620325192415
P 1.18118893473 4.87076816898 2.31317390283
P 4.27881872754 1.624893140115 4.90907056101
P 9.74549162496 1.658899479195 2.881128233865
P 6.64786183215 4.90477450806 0.28519521597
O 1.407927122595 4.922502467085 3.91834104669
O 4.02234922026 1.621354077945 1.31174424381
O 9.518753437095 1.60716518109 1.275919536045
O 6.90433133943 4.90831357023 3.88254231015
O 5.05559178789 4.907601840015 0.601737700515
O 0.414916351395 1.59970833792 3.2348719011
O 5.8710887718 1.62206580816 4.592538464955
O 10.51175328168 4.92995278062 1.95940426437
O 1.93001171391 6.140057386995 1.53390210246
O 3.489993610845 0.367350735465 4.165374144645
O 8.985250533105 2.93915848401 3.59159187072
O 7.41569692143 3.624332673465 1.019999084895
O 8.99666884578 0.38961026118 3.66037406301
O 7.436686948845 6.162323442345 1.02890721507
O 1.941430026585 3.590509164165 1.60268429475
O 3.51098363826 2.90533497471 4.17428227482
CELL_PARAMETERS {angstrom}
10.926615 0 0
0 6.529635 0
0 0 5.194245
!End