&CONTROL
calculation = "scf"
etot_conv_thr =   1.0000000000d-05
forc_conv_thr =   1.0000000000d-04
prefix = 'aiida'
pseudo_dir = '/opt/QEpot/SSSP_precision_pseudos/'
tprnfor = .true.
tstress = .true.
verbosity = 'high'
disk_io = 'none'
/
&SYSTEM
degauss =   2.2049585400d-02
ecutrho =   4.4000000000d+02
ecutwfc =   8.0000000000d+01
ibrav = 0
nat = 4
nosym = .false.
ntyp = 2
occupations = 'smearing'
smearing = 'cold'
/
&ELECTRONS
conv_thr =   2.0000000000d-10
electron_maxstep = 80
mixing_beta =   4.0000000000d-01
/
K_POINTS {automatic}
10 10 3 0 0 0
ATOMIC_SPECIES
B  10.81  B_pbe_v1.01.uspp.F.UPF
N  14.007  N.oncvpsp.upf
ATOMIC_POSITIONS {angstrom}
B -1.56027e-06 1.450551797429 1.92681625
B 1.256215334186 0.725274810801 5.78044875
N -1.56027e-06 1.450551797429 5.78044875
N 1.256215334186 0.725274810801 1.92681625
CELL_PARAMETERS {angstrom}
2.51242846 0 0
-1.256214686084 2.175826608231 0
0.000000000000 0.000000000000 7.707265
!End