&CONTROL
calculation = "scf"
etot_conv_thr =   1.0000000000d-05
forc_conv_thr =   1.0000000000d-04
prefix = 'aiida'
pseudo_dir = '/opt/QEpot/SSSP_precision_pseudos/'
tprnfor = .true.
tstress = .true.
verbosity = 'high'
disk_io = 'none'
/
&SYSTEM
degauss =   2.2049585400d-02
ecutrho = 4.4000000000d+02
ecutwfc = 8.0000000000d+01
ibrav = 0
nat = 4
nosym = .false.
ntyp = 2
occupations = 'smearing'
smearing = 'cold'
/
&ELECTRONS
conv_thr =   2.0000000000d-10
electron_maxstep = 80
mixing_beta =   4.0000000000d-01
/
K_POINTS {automatic}
10 10 3 0 0 0
ATOMIC_SPECIES
B  10.81  B_pbe_v1.01.uspp.F.UPF
N  14.007  N.oncvpsp.upf
ATOMIC_POSITIONS {angstrom}
B 0.006390428702 1.435591298032 1.893250215974
B 1.241656232562 0.722410253652 5.682672715974
N 0.006390428702 1.435591298032 5.682672715974
N 1.241656232562 0.722410253652 1.893250215974
CELL_PARAMETERS {angstrom}
2.470526666667 0 0
-1.235263333333 2.13953885406 0
0.000000000000 0.000000000000 7.578845
!End