&CONTROL
calculation = "scf"
etot_conv_thr = 1.0d-5
forc_conv_thr = 1.0d-4
pseudo_dir = '/opt/QEpot/SSSP_precision_pseudos/'
disk_io = 'none'
tprnfor = .true.
tstress = .true.
verbosity = 'high'
/
!controlend

&SYSTEM
ntyp = 4
occupations = 'smearing'
smearing = 'cold'
degauss =   7.3498618000d-03
ecutrho =   1.080d+03
ecutwfc =   1.000d+02
ibrav = 0
nat = 25
nosym = .false.
starting_magnetization(1) =   3.1250000000d-01
starting_magnetization(2) =   0.0000000000d+00
starting_magnetization(3) =   0.0000000000d+00
starting_magnetization(4) =   0.0000000000d+00
nspin = 2
!systemend
/

&ELECTRONS
conv_thr =   2.0000000000d-10
electron_maxstep = 1000
mixing_beta =   4.0000000000d-01
/
K_POINTS {automatic}
5 7 9 0 0 0
ATOMIC_SPECIES
Fe  55.845  Fe.pbe-spn-kjpaw_psl.0.2.1.UPF
Na  22.98977  Na_ONCV_PBE-1.0.oncvpsp.upf
O  15.9994  O.pbe-n-kjpaw_psl.0.1.UPF
P  30.973761  P.pbe-n-rrkjus_psl.1.0.0.UPF
ATOMIC_POSITIONS {angstrom}
Na -0.0646886541 0.4016328065 1.6171745764
Fe 3.1080888538 4.8063327057 4.2467046549
Fe 2.3533463732 2.0878408903 2.5599686658
Fe 7.2589380393 1.415409101 0.750259319
Fe 8.0891786729 4.1082043998 2.4839269602
P 0.9692839933 4.0801000706 1.3978128399
P 4.1302845265 1.560929853 4.7023277381
P 9.4424661125 2.0647373744 3.6456722357
P 6.2832057652 4.6546621511 0.2979481141
O 1.8697923678 4.1949632892 2.6958942295
O 3.7120697782 1.5593043709 1.2328545368
O 8.5639510738 1.9243314001 2.3268464801
O 6.7060483308 4.6496060469 3.7663005334
O 4.7618111713 4.822345275 0.4392731142
O 0.5056843141 1.6582940156 3.3802219375
O 5.6498894217 1.3924384472 4.5409842296
O 9.9039179173 4.4771302872 1.6506890463
O 1.550100845 5.12378157 0.3968349744
O 3.3364936407 0.5052439758 3.8243321886
O 9.1992666905 3.5304063887 4.057033223
O 6.8045696755 3.3573294694 1.068505153
O 8.8637504186 1.0560081579 4.6788339869
O 7.0679103028 5.7170412245 1.1733693241
O 1.1865535464 2.6139576007 0.9609320986
O 3.6244068231 2.8627371287 3.9419246789
CELL_PARAMETERS {angstrom}
10.4063 0 0
0 6.2187 0
0 0 4.9469
!End