&CONTROL
calculation = "scf"
etot_conv_thr = 1.0d-5
forc_conv_thr = 1.0d-4
pseudo_dir = '/opt/QEpot/SSSP_precision_pseudos/'
disk_io = 'none'
tprnfor = .true.
tstress = .true.
verbosity = 'high'
/
!controlend

&SYSTEM
ntyp = 4
occupations = 'smearing'
smearing = 'cold'
degauss =   7.3498618000d-03
ecutrho = 1.080d+03
ecutwfc = 1.000d+02
ibrav = 0
nat = 25
nosym = .false.
starting_magnetization(1) =   3.1250000000d-01
starting_magnetization(2) =   0.0000000000d+00
starting_magnetization(3) =   0.0000000000d+00
starting_magnetization(4) =   0.0000000000d+00
nspin = 2
!systemend
/

&ELECTRONS
conv_thr =   2.0000000000d-10
electron_maxstep = 1000
mixing_beta =   4.0000000000d-01
/
K_POINTS {automatic}
5 7 9 0 0 0
ATOMIC_SPECIES
Fe  55.845  Fe.pbe-spn-kjpaw_psl.0.2.1.UPF
Na  22.98977  Na_ONCV_PBE-1.0.oncvpsp.upf
O  15.9994  O.pbe-n-kjpaw_psl.0.1.UPF
P  30.973761  P.pbe-n-rrkjus_psl.1.0.0.UPF
ATOMIC_POSITIONS {angstrom}
Na 9.996893957893 0.38824691485 1.56327036369
Fe 3.00448820466 4.64612260644 4.105149017527
Fe 2.27489834914 2.01824674776 2.474634122963
Fe 7.016970865013 1.36822697305 0.725252971543
Fe 7.819541836817 3.97126368561 2.401129949727
P 0.93697492696 3.94409812382 1.351217207877
P 3.992605239847 1.50889997846 4.545585870537
P 9.1277195442 1.99591435961 3.524149958537
P 6.07376915501 4.49950431654 0.288015278763
O 1.80746712511 4.05512886652 2.606029228553
O 3.588337134927 1.50732498904 1.191761306727
O 8.278482907553 1.86018874463 2.249286997883
O 6.482513703313 4.49461704021 3.64075910982
O 4.603081463677 4.66160198719 0.424632331993
O 0.48882761746 1.60301461342 3.26754765967
O 5.461562710367 1.34602683592 4.389616049817
O 9.57378455307 4.32789058386 1.595668436273
O 1.498431580887 4.95298705271 0.383607525397
O 3.22527242798 0.48840301686 3.696856790923
O 8.892620761477 3.41272554828 3.92179744572
O 6.57774626401 3.24541598516 1.032888809983
O 8.568294893787 1.02080955492 4.522871354703
O 6.832310030883 5.52647556671 1.134257716643
O 1.147005626737 2.52682405658 0.928899365497
O 3.503596552767 2.76731051363 3.810525010157
CELL_PARAMETERS {angstrom}
10.059423333333 0 0
0 6.01141 0
0 0 4.782003333333
!End