&CONTROL
calculation = "scf"
etot_conv_thr = 1.0d-5
forc_conv_thr = 1.0d-4
pseudo_dir = '/opt/QEpot/SSSP_precision_pseudos/'
disk_io = 'none'
tprnfor = .true.
tstress = .true.
verbosity = 'high'
/
!controlend

&SYSTEM
ntyp = 4
occupations = 'smearing'
smearing = 'cold'
degauss =   7.3498618000d-03
ecutrho = 1.080d+03
ecutwfc = 1.000d+02
ibrav = 0
nat = 25
nosym = .false.
starting_magnetization(1) =   3.1250000000d-01
starting_magnetization(2) =   0.0000000000d+00
starting_magnetization(3) =   0.0000000000d+00
starting_magnetization(4) =   0.0000000000d+00
nspin = 2
!systemend
/

&ELECTRONS
conv_thr =   2.0000000000d-10
electron_maxstep = 1000
mixing_beta =   4.0000000000d-01
/
K_POINTS {automatic}
5 7 9 0 0 0
ATOMIC_SPECIES
Fe  55.845  Fe.pbe-spn-kjpaw_psl.0.2.1.UPF
Na  22.98977  Na_ONCV_PBE-1.0.oncvpsp.upf
O  15.9994  O.pbe-n-kjpaw_psl.0.1.UPF
P  30.973761  P.pbe-n-rrkjus_psl.1.0.0.UPF
ATOMIC_POSITIONS {angstrom}
Na 10.85869516116 0.4016347395 1.6171762383
Fe 3.26349580851 4.8063337308 4.2467058802
Fe 2.47101027579 2.0878414632 2.5599663341
Fe 7.62188214648 1.4154072135 0.7502616947
Fe 8.493640271025 4.1082038127 2.4839275342
P 1.01774862756 4.0801015074 1.3978109047
P 4.33679534673 1.5609310122 4.7023302109
P 9.9145919187 2.0647389927 3.6456723709
P 6.597369944235 4.6546596378 0.2979468401
O 1.963283256585 4.1949608964 2.6958923054
O 3.89767654311 1.5593017128 1.2328565242
O 8.99214522717 1.9243331841 2.3268486185
O 7.04135109153 4.6496038347 3.7663025274
O 4.999898831235 4.8223468833 0.4392748262
O 0.53096792931 1.6582909794 3.3802217169
O 5.93238708195 1.3924415544 4.5409821205
O 10.399110807645 4.4771281902 1.6506914858
O 1.62760671717 5.1237797097 0.3968353711
O 3.50331315453 0.5052445002 3.8243346113
O 9.659225999535 3.5304057396 4.0570318404
O 7.144793355735 3.3573268812 1.0685056655
O 9.30694100532 1.0560098844 4.6788324359
O 7.421302274925 5.7170436897 1.1733700517
O 1.245885422145 2.6139559206 0.9609303781
O 3.80563073835 2.8627350141 3.9419224243
CELL_PARAMETERS {angstrom}
10.926615 0 0
0 6.2187 0
0 0 4.9469
!End