&CONTROL
calculation = "scf"
etot_conv_thr = 1.0d-5
forc_conv_thr = 1.0d-4
pseudo_dir = '/opt/QEpot/SSSP_precision_pseudos/'
disk_io = 'none'
tprnfor = .true.
tstress = .true.
verbosity = 'high'
/
!controlend

&SYSTEM
ntyp = 4
occupations = 'smearing'
smearing = 'cold'
degauss =   7.3498618000d-03
ecutrho = 1.080d+03
ecutwfc = 1.000d+02
ibrav = 0
nat = 25
nosym = .false.
starting_magnetization(1) =   3.1250000000d-01
starting_magnetization(2) =   0.0000000000d+00
starting_magnetization(3) =   0.0000000000d+00
starting_magnetization(4) =   0.0000000000d+00
nspin = 2
!systemend
/

&ELECTRONS
conv_thr =   2.0000000000d-10
electron_maxstep = 1000
mixing_beta =   4.0000000000d-01
/
K_POINTS {automatic}
5 7 9 0 0 0
ATOMIC_SPECIES
Fe  55.845  Fe.pbe-spn-kjpaw_psl.0.2.1.UPF
Na  22.98977  Na_ONCV_PBE-1.0.oncvpsp.upf
O  15.9994  O.pbe-n-kjpaw_psl.0.1.UPF
P  30.973761  P.pbe-n-rrkjus_psl.1.0.0.UPF
ATOMIC_POSITIONS {angstrom}
Na 10.686334920507 0.4016347395 1.6171762383
Fe 3.21169428774 4.8063337308 4.2467058802
Fe 2.43178789046 2.0878414632 2.5599663341
Fe 7.500899890187 1.4154072135 0.7502616947
Fe 8.358820584183 4.1082038127 2.4839275342
P 1.00159388744 4.0801015074 1.3978109047
P 4.267957325353 1.5609310122 4.7023302109
P 9.7572174438 2.0647389927 3.6456723709
P 6.49264978639 4.6546596378 0.2979468401
O 1.93212003029 4.1949608964 2.6958923054
O 3.835808661473 1.5593017128 1.2328565242
O 8.849412763247 1.9243331841 2.3268486185
O 6.929583613887 4.6496038347 3.7663025274
O 4.920535357723 4.8223468833 0.4392748262
O 0.52253986694 1.6582909794 3.3802217169
O 5.838222207633 1.3924415544 4.5409821205
O 10.23404555673 4.4771281902 1.6506914858
O 1.601771689913 5.1237797097 0.3968353711
O 3.44770500922 0.5052445002 3.8243346113
O 9.505904951923 3.5304057396 4.0570318404
O 7.03138393739 3.3573268812 1.0685056655
O 9.159211783013 1.0560098844 4.6788324359
O 7.303503826117 5.7170436897 1.1733700517
O 1.226109463063 2.6139559206 0.9609303781
O 3.745223901233 2.8627350141 3.9419224243
CELL_PARAMETERS {angstrom}
10.753176666667 0 0
0 6.2187 0
0 0 4.9469
!End