&CONTROL
calculation = "scf"
etot_conv_thr = 1.0d-5
forc_conv_thr = 1.0d-4
pseudo_dir = '/opt/QEpot/SSSP_precision_pseudos/'
disk_io = 'none'
tprnfor = .true.
tstress = .true.
verbosity = 'high'
/
!controlend

&SYSTEM
ntyp = 4
occupations = 'smearing'
smearing = 'cold'
degauss =   7.3498618000d-03
ecutrho = 1.080d+03
ecutwfc = 1.000d+02
ibrav = 0
nat = 25
nosym = .false.
starting_magnetization(1) =   3.1250000000d-01
starting_magnetization(2) =   0.0000000000d+00
starting_magnetization(3) =   0.0000000000d+00
starting_magnetization(4) =   0.0000000000d+00
nspin = 2
!systemend
/

&ELECTRONS
conv_thr =   2.0000000000d-10
electron_maxstep = 1000
mixing_beta =   4.0000000000d-01
/
K_POINTS {automatic}
5 7 9 0 0 0
ATOMIC_SPECIES
Fe  55.845  Fe.pbe-spn-kjpaw_psl.0.2.1.UPF
Na  22.98977  Na_ONCV_PBE-1.0.oncvpsp.upf
O  15.9994  O.pbe-n-kjpaw_psl.0.1.UPF
P  30.973761  P.pbe-n-rrkjus_psl.1.0.0.UPF
ATOMIC_POSITIONS {angstrom}
Na 10.169254198547 0.394940827175 1.590223300995
Fe 3.05628972543 4.72622816862 4.175927448863
Fe 2.31412073447 2.05304410548 2.517300228532
Fe 7.137953121307 1.391817093275 0.737757333122
Fe 7.954361523658 4.039733749155 2.442528741963
P 0.95312966708 4.01209981561 1.374514056288
P 4.061443261223 1.53491549533 4.623958040718
P 9.2850940191 2.030326676155 3.584911164718
P 6.178489312855 4.57708197717 0.292981059432
O 1.838630351405 4.12504488146 2.650960766977
O 3.650205016563 1.53331335092 1.212308915463
O 8.421215371477 1.892260964365 2.288067808192
O 6.594281180957 4.572110437455 3.70353081861
O 4.682444937188 4.741974435245 0.431953579097
O 0.49725567983 1.63065279641 3.323884688285
O 5.555727584683 1.36923419516 4.465299085158
O 9.738849803985 4.40250938703 1.623179961037
O 1.524266608143 5.038383381205 0.390221448248
O 3.28088057329 0.49682375853 3.760595701112
O 9.045941809088 3.47156564394 3.98941464306
O 6.691155682355 3.30137143318 1.050697237742
O 8.716024116093 1.03840971966 4.600851895302
O 6.950108479692 5.621759628205 1.153813884172
O 1.166781585818 2.57038998859 0.944914871798
O 3.564003389883 2.815022763865 3.876223717228
CELL_PARAMETERS {angstrom}
10.232861666667 0 0
0 6.115055 0
0 0 4.864451666667
!End