&CONTROL
calculation = "scf"
etot_conv_thr = 1.0d-5
forc_conv_thr = 1.0d-4
pseudo_dir = '/opt/QEpot/SSSP_precision_pseudos/'
disk_io = 'none'
tprnfor = .true.
tstress = .true.
verbosity = 'high'
/
!controlend

&SYSTEM
ntyp = 4
occupations = 'smearing'
smearing = 'cold'
degauss =   7.3498618000d-03
ecutrho = 1.080d+03
ecutwfc = 1.000d+02
ibrav = 0
nat = 25
nosym = .false.
starting_magnetization(1) =   3.1250000000d-01
starting_magnetization(2) =   0.0000000000d+00
starting_magnetization(3) =   0.0000000000d+00
starting_magnetization(4) =   0.0000000000d+00
nspin = 2
!systemend
/

&ELECTRONS
conv_thr =   2.0000000000d-10
electron_maxstep = 1000
mixing_beta =   4.0000000000d-01
/
K_POINTS {automatic}
5 7 9 0 0 0
ATOMIC_SPECIES
Fe  55.845  Fe.pbe-spn-kjpaw_psl.0.2.1.UPF
Na  22.98977  Na_ONCV_PBE-1.0.oncvpsp.upf
O  15.9994  O.pbe-n-kjpaw_psl.0.1.UPF
P  30.973761  P.pbe-n-rrkjus_psl.1.0.0.UPF
ATOMIC_POSITIONS {angstrom}
Na 9.996893957893 0.4016347395 1.6171762383
Fe 3.00448820466 4.8063337308 4.2467058802
Fe 2.27489834914 2.0878414632 2.5599663341
Fe 7.016970865013 1.4154072135 0.7502616947
Fe 7.819541836817 4.1082038127 2.4839275342
P 0.93697492696 4.0801015074 1.3978109047
P 3.992605239847 1.5609310122 4.7023302109
P 9.1277195442 2.0647389927 3.6456723709
P 6.07376915501 4.6546596378 0.2979468401
O 1.80746712511 4.1949608964 2.6958923054
O 3.588337134927 1.5593017128 1.2328565242
O 8.278482907553 1.9243331841 2.3268486185
O 6.482513703313 4.6496038347 3.7663025274
O 4.603081463677 4.8223468833 0.4392748262
O 0.48882761746 1.6582909794 3.3802217169
O 5.461562710367 1.3924415544 4.5409821205
O 9.57378455307 4.4771281902 1.6506914858
O 1.498431580887 5.1237797097 0.3968353711
O 3.22527242798 0.5052445002 3.8243346113
O 8.892620761477 3.5304057396 4.0570318404
O 6.57774626401 3.3573268812 1.0685056655
O 8.568294893787 1.0560098844 4.6788324359
O 6.832310030883 5.7170436897 1.1733700517
O 1.147005626737 2.6139559206 0.9609303781
O 3.503596552767 2.8627350141 3.9419224243
CELL_PARAMETERS {angstrom}
10.059423333333 0 0
0 6.2187 0
0 0 4.9469
!End