&CONTROL
calculation = "scf"
etot_conv_thr = 1.0d-5
forc_conv_thr = 1.0d-4
pseudo_dir = '/opt/QEpot/SSSP_precision_pseudos/'
disk_io = 'none'
tprnfor = .true.
tstress = .true.
verbosity = 'high'
/
!controlend

&SYSTEM
ntyp = 4
occupations = 'smearing'
smearing = 'cold'
degauss =   7.3498618000d-03
ecutrho = 1.080d+03
ecutwfc = 1.000d+02
ibrav = 0
nat = 25
nosym = .false.
starting_magnetization(1) =   3.1250000000d-01
starting_magnetization(2) =   0.0000000000d+00
starting_magnetization(3) =   0.0000000000d+00
starting_magnetization(4) =   0.0000000000d+00
nspin = 2
!systemend
/

&ELECTRONS
conv_thr =   2.0000000000d-10
electron_maxstep = 1000
mixing_beta =   4.0000000000d-01
/
K_POINTS {automatic}
5 7 9 0 0 0
ATOMIC_SPECIES
Fe  55.845  Fe.pbe-spn-kjpaw_psl.0.2.1.UPF
Na  22.98977  Na_ONCV_PBE-1.0.oncvpsp.upf
O  15.9994  O.pbe-n-kjpaw_psl.0.1.UPF
P  30.973761  P.pbe-n-rrkjus_psl.1.0.0.UPF
ATOMIC_POSITIONS {angstrom}
Na 9.82453371724 0.381553002525 1.6171762383
Fe 2.95268668389 4.56601704426 4.2467058802
Fe 2.23567596381 1.98344939004 2.5599663341
Fe 6.89598860872 1.344636852825 0.7502616947
Fe 7.684722149975 3.902793622065 2.4839275342
P 0.92082018684 3.87609643203 1.3978109047
P 3.92376721847 1.48288446159 4.7023302109
P 8.9703450693 1.961502043065 3.6456723709
P 5.969048997165 4.42192665591 0.2979468401
O 1.776303898815 3.98521285158 2.6958923054
O 3.52646925329 1.48133662716 1.2328565242
O 8.13575044363 1.828116524895 2.3268486185
O 6.37074622567 4.417123642965 3.7663025274
O 4.523717990165 4.581229539135 0.4392748262
O 0.48039955509 1.57537643043 3.3802217169
O 5.36739783605 1.32281947668 4.5409821205
O 9.408719302155 4.25327178069 1.6506914858
O 1.47259655363 4.867590724215 0.3968353711
O 3.16966428267 0.47998227519 3.8243346113
O 8.739299713865 3.35388545262 4.0570318404
O 6.464336845665 3.18946053714 1.0685056655
O 8.42056567148 1.00320939018 4.6788324359
O 6.714511582075 5.431191505215 1.1733700517
O 1.127229667655 2.48325812457 0.9609303781
O 3.44318971565 2.719598263395 3.9419224243
CELL_PARAMETERS {angstrom}
9.885985 0 0
0 5.907765 0
0 0 4.9469
!End