&CONTROL
calculation = "scf"
etot_conv_thr = 1.0d-5
forc_conv_thr = 1.0d-4
pseudo_dir = '/opt/QEpot/SSSP_precision_pseudos/'
disk_io = 'none'
tprnfor = .true.
tstress = .true.
verbosity = 'high'
/
!controlend

&SYSTEM
ntyp = 4
occupations = 'smearing'
smearing = 'cold'
degauss =   7.3498618000d-03
ecutrho = 1.080d+03
ecutwfc = 1.000d+02
ibrav = 0
nat = 25
nosym = .false.
starting_magnetization(1) =   3.1250000000d-01
starting_magnetization(2) =   0.0000000000d+00
starting_magnetization(3) =   0.0000000000d+00
starting_magnetization(4) =   0.0000000000d+00
nspin = 2
!systemend
/

&ELECTRONS
conv_thr =   2.0000000000d-10
electron_maxstep = 1000
mixing_beta =   4.0000000000d-01
/
K_POINTS {automatic}
5 7 9 0 0 0
ATOMIC_SPECIES
Fe  55.845  Fe.pbe-spn-kjpaw_psl.0.2.1.UPF
Na  22.98977  Na_ONCV_PBE-1.0.oncvpsp.upf
O  15.9994  O.pbe-n-kjpaw_psl.0.1.UPF
P  30.973761  P.pbe-n-rrkjus_psl.1.0.0.UPF
ATOMIC_POSITIONS {angstrom}
Na 10.85869516116 0.421716476475 1.698035050215
Fe 3.26349580851 5.04665041734 4.45904117421
Fe 2.47101027579 2.19223353636 2.687964650805
Fe 7.62188214648 1.486177574175 0.787774779435
Fe 8.493640271025 4.313614003335 2.60812391091
P 1.01774862756 4.28410658277 1.467701449935
P 4.33679534673 1.63897756281 4.937446721445
P 9.9145919187 2.167975942335 3.827955989445
P 6.597369944235 4.88739261969 0.312844182105
O 1.963283256585 4.40470894122 2.83068692067
O 3.89767654311 1.63726679844 1.29449935041
O 8.99214522717 2.020549843305 2.443191049425
O 7.04135109153 4.882084026435 3.95461765377
O 4.999898831235 5.063464227465 0.46123856751
O 0.53096792931 1.74120552837 3.549232802745
O 5.93238708195 1.46206363212 4.768031226525
O 10.399110807645 4.70098459971 1.73322606009
O 1.62760671717 5.379968695185 0.416677139655
O 3.50331315453 0.53050672521 4.015551341865
O 9.659225999535 3.70692602658 4.25988343242
O 7.144793355735 3.52519322526 1.121930948775
O 9.30694100532 1.10881037862 4.912774057695
O 7.421302274925 6.002895874185 1.232038554285
O 1.245885422145 2.74465371663 1.008976897005
O 3.80563073835 3.005871764805 4.139018545515
CELL_PARAMETERS {angstrom}
10.926615 0 0
0 6.529635 0
0 0 5.194245
!End