&CONTROL
calculation = "scf"
etot_conv_thr =   1.0000000000d-05
forc_conv_thr =   1.0000000000d-04
prefix = 'aiida'
pseudo_dir = '/opt/QEpot/SSSP_precision_pseudos/'
tprnfor = .true.
tstress = .true.
verbosity = 'high'
disk_io = 'none'
/
&SYSTEM
degauss =   2.2049585400d-02
ecutrho = 4.4000000000d+02
ecutwfc = 8.0000000000d+01
ibrav = 0
nat = 8
nosym = .false.
ntyp = 2
occupations = 'smearing'
smearing = 'cold'
/
&ELECTRONS
conv_thr =   2.0000000000d-10
electron_maxstep = 80
mixing_beta =   4.0000000000d-01
/
K_POINTS {automatic}
9 5 4 0 0 0
ATOMIC_SPECIES
B  10.81  B_pbe_v1.01.uspp.F.UPF
N  14.007  N.oncvpsp.upf
ATOMIC_POSITIONS {angstrom}
B 6.196689744238 2.464764581332 0.014954253929
B 2.532888004041 0.506346704921 2.508442314908
B 10.876263178173 2.137996228823 2.734210971335
B 6.687707631896 1.323704333456 2.198008914911
N 12.320128093168 2.422028444475 2.899011609823
N 6.348460432928 1.247371040894 0.699596688662
N 8.129099308634 1.597581848049 2.456136008909
N 3.93496549404 0.772494217886 2.67934633218
CELL_PARAMETERS {angstrom}
6.340015 0 0
-0.139064867404 2.467081097786 0
0.039120613534 0.007496415451 4.398319637242
!End