&CONTROL
calculation = "scf"
etot_conv_thr =   1.0000000000d-05
forc_conv_thr =   1.0000000000d-04
prefix = 'aiida'
pseudo_dir = '/opt/QEpot/SSSP_precision_pseudos/'
tprnfor = .true.
tstress = .true.
verbosity = 'high'
disk_io = 'none'
/
&SYSTEM
degauss =   2.2049585400d-02
ecutrho = 4.4000000000d+02
ecutwfc = 8.0000000000d+01
ibrav = 0
nat = 8
nosym = .false.
ntyp = 2
occupations = 'smearing'
smearing = 'cold'
/
&ELECTRONS
conv_thr =   2.0000000000d-10
electron_maxstep = 80
mixing_beta =   4.0000000000d-01
/
K_POINTS {automatic}
9 5 4 0 0 0
ATOMIC_SPECIES
B  10.81  B_pbe_v1.01.uspp.F.UPF
N  14.007  N.oncvpsp.upf
ATOMIC_POSITIONS {angstrom}
B 7.008424911685 0.007326154607 0.010255930626
B 2.656551913556 0.501511009217 2.508104733569
B 11.459285666117 2.147638899883 2.729512648031
B 7.032618043811 1.318868637753 2.197671333573
N 12.979908141661 2.431671115536 2.894313286519
N 6.691498003611 1.257013711955 0.694898365359
N 8.566062533117 1.60722451911 2.451437685606
N 4.148631388113 0.782136888946 2.674648008876
CELL_PARAMETERS {angstrom}
7.007385 0 0
-0.806434867404 2.467081097786 0
0.039120613534 0.007496415451 4.398319637242
!End