&CONTROL
calculation = "scf"
etot_conv_thr =   1.0000000000d-05
forc_conv_thr =   1.0000000000d-04
prefix = 'aiida'
pseudo_dir = '/opt/QEpot/SSSP_precision_pseudos/'
tprnfor = .true.
tstress = .true.
verbosity = 'high'
disk_io = 'none'
/
&SYSTEM
degauss =   2.2049585400d-02
ecutrho = 4.4000000000d+02
ecutwfc = 8.0000000000d+01
ibrav = 0
nat = 8
nosym = .false.
ntyp = 2
occupations = 'smearing'
smearing = 'cold'
/
&ELECTRONS
conv_thr =   2.0000000000d-10
electron_maxstep = 80
mixing_beta =   4.0000000000d-01
/
K_POINTS {automatic}
9 5 4 0 0 0
ATOMIC_SPECIES
B  10.81  B_pbe_v1.01.uspp.F.UPF
N  14.007  N.oncvpsp.upf
ATOMIC_POSITIONS {angstrom}
B 6.904308815602 0.004622883717 0.014433545523
B 2.649044005977 0.499224661526 2.520869026757
B 11.37011087205 2.144935628994 2.733690262928
B 6.988235719166 1.316582290062 2.210435626761
N 12.877940420836 2.428967844646 2.898490901416
N 6.642320695755 1.254310441065 0.699075980256
N 8.501230949628 1.604521248221 2.455615300503
N 4.121016026358 0.779433618057 2.678825623773
CELL_PARAMETERS {angstrom}
6.896156666667 0 0
-0.695206534070 2.467081097786 0
0.039120613534 0.007496415451 4.398319637242
!End