&CONTROL
calculation = "scf"
etot_conv_thr =   1.0000000000d-05
forc_conv_thr =   1.0000000000d-04
prefix = 'aiida'
pseudo_dir = '/opt/QEpot/SSSP_precision_pseudos/'
tprnfor = .true.
tstress = .true.
verbosity = 'high'
disk_io = 'none'
/
&SYSTEM
degauss =   2.2049585400d-02
ecutrho = 4.4000000000d+02
ecutwfc = 8.0000000000d+01
ibrav = 0
nat = 8
nosym = .false.
ntyp = 2
occupations = 'smearing'
smearing = 'cold'
/
&ELECTRONS
conv_thr =   2.0000000000d-10
electron_maxstep = 80
mixing_beta =   4.0000000000d-01
/
K_POINTS {automatic}
9 5 4 0 0 0
ATOMIC_SPECIES
B  10.81  B_pbe_v1.01.uspp.F.UPF
N  14.007  N.oncvpsp.upf
ATOMIC_POSITIONS {angstrom}
B 6.893056909046 0.006893629487 0.012783645393
B 2.677070566935 0.509758286448 2.607299436439
B 11.538597724877 2.218550132939 2.822682253379
B 7.084694875292 1.354361169268 2.286518256443
N 13.070249543322 2.512050089113 2.992976246483
N 6.735876014205 1.298237438746 0.720247494618
N 8.624397773565 1.660121939473 2.53533812554
N 4.175089211106 0.807531388304 2.765988792919
CELL_PARAMETERS {angstrom}
6.896156666667 0 0
-0.488508196317 2.549317134379 0
0.040424633985 0.007746295966 4.544930291817
!End