&CONTROL
calculation = "scf"
etot_conv_thr =   1.0000000000d-05
forc_conv_thr =   1.0000000000d-04
prefix = 'aiida'
pseudo_dir = '/opt/QEpot/SSSP_precision_pseudos/'
tprnfor = .true.
tstress = .true.
verbosity = 'high'
disk_io = 'none'
/
&SYSTEM
degauss =   2.2049585400d-02
ecutrho = 4.4000000000d+02
ecutwfc = 8.0000000000d+01
ibrav = 0
nat = 8
nosym = .false.
ntyp = 2
occupations = 'smearing'
smearing = 'cold'
/
&ELECTRONS
conv_thr =   2.0000000000d-10
electron_maxstep = 80
mixing_beta =   4.0000000000d-01
/
K_POINTS {automatic}
9 5 4 0 0 0
ATOMIC_SPECIES
B  10.81  B_pbe_v1.01.uspp.F.UPF
N  14.007  N.oncvpsp.upf
ATOMIC_POSITIONS {angstrom}
B 6.248536137955 2.466264279977 4.398097890299
B 2.62279376816 0.495492374263 2.522577330603
B 11.274137083622 2.131999512016 2.719034970462
B 6.925111064282 1.312850002798 2.212143930606
N 12.76917370565 2.416031727669 2.88383560895
N 6.586344393537 1.241374324088 0.68442068779
N 8.429600371776 1.591585131243 2.440960008037
N 4.086601670242 0.766497501079 2.664170331307
CELL_PARAMETERS {angstrom}
6.784928333333 0 0
-0.583978200737 2.467081097786 0
0.039120613534 0.007496415451 4.398319637242
!End