&CONTROL
calculation = "scf"
etot_conv_thr =   1.0000000000d-05
forc_conv_thr =   1.0000000000d-04
prefix = 'aiida'
pseudo_dir = '/opt/QEpot/SSSP_precision_pseudos/'
tprnfor = .true.
tstress = .true.
verbosity = 'high'
disk_io = 'none'
/
&SYSTEM
degauss =   2.2049585400d-02
ecutrho = 4.4000000000d+02
ecutwfc = 8.0000000000d+01
ibrav = 0
nat = 8
nosym = .false.
ntyp = 2
occupations = 'smearing'
smearing = 'cold'
/
&ELECTRONS
conv_thr =   2.0000000000d-10
electron_maxstep = 80
mixing_beta =   4.0000000000d-01
/
K_POINTS {automatic}
9 5 4 0 0 0
ATOMIC_SPECIES
B  10.81  B_pbe_v1.01.uspp.F.UPF
N  14.007  N.oncvpsp.upf
ATOMIC_POSITIONS {angstrom}
B 6.411912561093 2.547201374717 0.005436456319
B 2.675839540872 0.523102047139 2.520450219499
B 11.545155363901 2.209386255413 2.724693173725
B 7.083555886993 1.367722566526 2.210016819502
N 13.076758322004 2.502876848814 2.889493812213
N 6.743036878746 1.289189153197 0.690078891053
N 8.631037856675 1.650973860143 2.446618211299
N 4.181663116481 0.798370627787 2.66982853457
CELL_PARAMETERS {angstrom}
6.896156666667 0 0
-0.488508196317 2.549317134379 0
0.039120613534 0.007496415451 4.398319637242
!End