&CONTROL
calculation = "scf"
etot_conv_thr =   1.0000000000d-05
forc_conv_thr =   1.0000000000d-04
prefix = 'aiida'
pseudo_dir = '/opt/QEpot/SSSP_precision_pseudos/'
tprnfor = .true.
tstress = .true.
verbosity = 'high'
disk_io = 'none'
/
&SYSTEM
degauss =   2.2049585400d-02
ecutrho = 4.4000000000d+02
ecutwfc = 8.0000000000d+01
ibrav = 0
nat = 8
nosym = .false.
ntyp = 2
occupations = 'smearing'
smearing = 'cold'
/
&ELECTRONS
conv_thr =   2.0000000000d-10
electron_maxstep = 80
mixing_beta =   4.0000000000d-01
/
K_POINTS {automatic}
9 5 4 0 0 0
ATOMIC_SPECIES
B  10.81  B_pbe_v1.01.uspp.F.UPF
N  14.007  N.oncvpsp.upf
ATOMIC_POSITIONS {angstrom}
B 6.555844078805 2.593984392886 4.615864553427
B 2.73003082096 0.52828100228 2.635152514591
B 11.731623688874 2.243006386527 2.852848487598
B 7.208745843968 1.386506512242 2.309197444595
N 13.287979568906 2.541240212962 3.02588915801
N 6.851438724804 1.307849939202 0.716503490792
N 8.770420512541 1.675571286715 2.560869777052
N 4.249348908751 0.809229275043 2.795240616486
CELL_PARAMETERS {angstrom}
7.007385 0 0
-0.496387360774 2.590435152675 0
0.041076644211 0.007871236224 4.618235619105
!End