&CONTROL
calculation = "scf"
etot_conv_thr = 1.0d-5
forc_conv_thr = 1.0d-4
pseudo_dir = '/opt/QEpot/SSSP_precision_pseudos/'
disk_io = 'none'
tprnfor = .true.
tstress = .true.
verbosity = 'high'
/
!controlend

&SYSTEM
ntyp = 4
occupations = 'smearing'
smearing = 'cold'
degauss =   7.3498618000d-03
ecutrho = 1.080d+03
ecutwfc = 1.000d+02
ibrav = 0
nat = 28
nosym = .false.
starting_magnetization(1) =   3.1250000000d-01
starting_magnetization(2) =   0.0000000000d+00
starting_magnetization(3) =   0.0000000000d+00
starting_magnetization(4) =   0.0000000000d+00
nspin = 2
!systemend
/

&ELECTRONS
conv_thr =   2.0000000000d-10
electron_maxstep = 1000
mixing_beta =   4.0000000000d-01
/
K_POINTS {automatic}
5 7 9 0 0 0
ATOMIC_SPECIES
Fe  55.845  Fe.pbe-spn-kjpaw_psl.0.2.1.UPF
Na  22.98977  Na_ONCV_PBE-1.0.oncvpsp.upf
O  15.9994  O.pbe-n-kjpaw_psl.0.1.UPF
P  30.973761  P.pbe-n-rrkjus_psl.1.0.0.UPF
ATOMIC_POSITIONS {angstrom}
Na 0 0 0
Na 5.376620592863 0 2.4734648407
Na 10.753176666667 3.1093624374 0
Na 5.376620592863 3.1093624374 2.4734648407
Fe 3.08639827322 4.6640498748 4.8795529034
Fe 2.290222319643 1.5546812187 2.4060880627
Fe 7.666842912507 1.5546812187 0.067376778
Fe 8.463008112907 4.6640498748 2.5408416187
P 1.165009913243 4.6640498748 2.1895622497
P 4.21161067962 1.5546812187 4.6630270904
P 9.588231272483 1.5546812187 2.7573674317
P 6.541630506107 4.6640498748 0.283902591
O 1.22599117812 4.6640498748 3.7221662856
O 4.150629414743 1.5546812187 1.2487014449
O 9.527250007607 1.5546812187 1.2247683427
O 6.602611770983 4.6640498748 3.6982331834
O 5.038013812807 4.6640498748 0.797044528
O 0.338606780057 1.5546812187 3.2705093687
O 5.71522737292 1.5546812187 4.1498851534
O 10.41463440567 4.6640498748 1.6764203127
O 1.888161044077 5.8742897379 1.5425126766
O 3.488459548787 0.3444413556 4.0159775173
O 8.86508014165 2.7649210818 3.4044170048
O 7.26478163694 3.4538100117 0.9309521641
O 8.86508014165 0.3444413556 3.4044170048
O 7.26478163694 5.8742897379 0.9309521641
O 1.888161044077 3.4538100117 1.5425126766
O 3.488459548787 2.7649210818 4.0159775173
CELL_PARAMETERS {angstrom}
10.753176666667 0 0
0 6.2187 0
0 0 4.9469
!End