&CONTROL
calculation = "scf"
etot_conv_thr = 1.0d-5
forc_conv_thr = 1.0d-4
pseudo_dir = '/opt/QEpot/SSSP_precision_pseudos/'
disk_io = 'none'
tprnfor = .true.
tstress = .true.
verbosity = 'high'
/
!controlend

&SYSTEM
ntyp = 4
occupations = 'smearing'
smearing = 'cold'
degauss =   7.3498618000d-03
ecutrho = 1.080d+03
ecutwfc = 1.000d+02
ibrav = 0
nat = 28
nosym = .false.
starting_magnetization(1) =   3.1250000000d-01
starting_magnetization(2) =   0.0000000000d+00
starting_magnetization(3) =   0.0000000000d+00
starting_magnetization(4) =   0.0000000000d+00
nspin = 2
!systemend
/

&ELECTRONS
conv_thr =   2.0000000000d-10
electron_maxstep = 1000
mixing_beta =   4.0000000000d-01
/
K_POINTS {automatic}
5 7 9 0 0 0
ATOMIC_SPECIES
Fe  55.845  Fe.pbe-spn-kjpaw_psl.0.2.1.UPF
Na  22.98977  Na_ONCV_PBE-1.0.oncvpsp.upf
O  15.9994  O.pbe-n-kjpaw_psl.0.1.UPF
P  30.973761  P.pbe-n-rrkjus_psl.1.0.0.UPF
ATOMIC_POSITIONS {angstrom}
Na 0 0 0
Na 5.463340279845 0 2.597138082735
Na 0 3.26483055927 0
Na 5.463340279845 3.26483055927 2.597138082735
Fe 3.13617889053 4.89725236854 5.12353054857
Fe 2.327161389315 1.632415279635 2.526392465835
Fe 7.79050166916 1.632415279635 0.0707456169
Fe 8.59950824376 4.89725236854 2.667883699635
P 1.183800395715 4.89725236854 2.299040362185
P 4.27953988413 1.632415279635 4.89617844492
P 9.742880163975 1.632415279635 2.895235803285
P 6.64714067556 4.89725236854 0.29809772055
O 1.24576522938 4.89725236854 3.90827459988
O 4.217575050465 1.632415279635 1.311136517145
O 9.68091533031 1.632415279635 1.286006759835
O 6.709105509225 4.89725236854 3.88314484257
O 5.11927210011 4.89725236854 0.8368967544
O 0.344068179735 1.632415279635 3.434034837135
O 5.80740845958 1.632415279635 4.35737941107
O 10.582612379955 4.89725236854 1.760241328335
O 1.918615254465 6.168004224795 1.61963831043
O 3.54472502538 0.36166342338 4.216776393165
O 9.008065305225 2.90316713589 3.57463785504
O 7.38195553431 3.626500512285 0.977499772305
O 9.008065305225 0.36166342338 3.57463785504
O 7.38195553431 6.168004224795 0.977499772305
O 1.918615254465 3.626500512285 1.61963831043
O 3.54472502538 2.90316713589 4.216776393165
CELL_PARAMETERS {angstrom}
10.926615 0 0
0 6.529635 0
0 0 5.194245
!End