&CONTROL
calculation = "scf"
etot_conv_thr = 1.0d-5
forc_conv_thr = 1.0d-4
pseudo_dir = '/opt/QEpot/SSSP_precision_pseudos/'
disk_io = 'none'
tprnfor = .true.
tstress = .true.
verbosity = 'high'
/
!controlend

&SYSTEM
ntyp = 4
occupations = 'smearing'
smearing = 'cold'
degauss =   7.3498618000d-03
ecutrho = 1.080d+03
ecutwfc = 1.000d+02
ibrav = 0
nat = 28
nosym = .false.
starting_magnetization(1) =   3.1250000000d-01
starting_magnetization(2) =   0.0000000000d+00
starting_magnetization(3) =   0.0000000000d+00
starting_magnetization(4) =   0.0000000000d+00
nspin = 2
!systemend
/

&ELECTRONS
conv_thr =   2.0000000000d-10
electron_maxstep = 1000
mixing_beta =   4.0000000000d-01
/
K_POINTS {automatic}
5 7 9 0 0 0
ATOMIC_SPECIES
Fe  55.845  Fe.pbe-spn-kjpaw_psl.0.2.1.UPF
Na  22.98977  Na_ONCV_PBE-1.0.oncvpsp.upf
O  15.9994  O.pbe-n-kjpaw_psl.0.1.UPF
P  30.973761  P.pbe-n-rrkjus_psl.1.0.0.UPF
ATOMIC_POSITIONS {angstrom}
Na 0 0 0
Na 5.463340279845 0 2.4734648407
Na 0 3.26483055927 0
Na 5.463340279845 3.26483055927 2.4734648407
Fe 3.13617889053 4.89725236854 4.8795529034
Fe 2.327161389315 1.632415279635 2.4060880627
Fe 7.79050166916 1.632415279635 0.067376778
Fe 8.59950824376 4.89725236854 2.5408416187
P 1.183800395715 4.89725236854 2.1895622497
P 4.27953988413 1.632415279635 4.6630270904
P 9.742880163975 1.632415279635 2.7573674317
P 6.64714067556 4.89725236854 0.283902591
O 1.24576522938 4.89725236854 3.7221662856
O 4.217575050465 1.632415279635 1.2487014449
O 9.68091533031 1.632415279635 1.2247683427
O 6.709105509225 4.89725236854 3.6982331834
O 5.11927210011 4.89725236854 0.797044528
O 0.344068179735 1.632415279635 3.2705093687
O 5.80740845958 1.632415279635 4.1498851534
O 10.582612379955 4.89725236854 1.6764203127
O 1.918615254465 6.168004224795 1.5425126766
O 3.54472502538 0.36166342338 4.0159775173
O 9.008065305225 2.90316713589 3.4044170048
O 7.38195553431 3.626500512285 0.9309521641
O 9.008065305225 0.36166342338 3.4044170048
O 7.38195553431 6.168004224795 0.9309521641
O 1.918615254465 3.626500512285 1.5425126766
O 3.54472502538 2.90316713589 4.0159775173
CELL_PARAMETERS {angstrom}
10.926615 0 0
0 6.529635 0
0 0 4.9469
!End