&CONTROL
calculation = "scf"
etot_conv_thr = 1.0d-5
forc_conv_thr = 1.0d-4
pseudo_dir = '/opt/QEpot/SSSP_precision_pseudos/'
disk_io = 'none'
tprnfor = .true.
tstress = .true.
verbosity = 'high'
/
!controlend

&SYSTEM
ntyp = 4
occupations = 'smearing'
smearing = 'cold'
degauss =   7.3498618000d-03
ecutrho = 1.080d+03
ecutwfc = 1.000d+02
ibrav = 0
nat = 28
nosym = .false.
starting_magnetization(1) =   3.1250000000d-01
starting_magnetization(2) =   0.0000000000d+00
starting_magnetization(3) =   0.0000000000d+00
starting_magnetization(4) =   0.0000000000d+00
nspin = 2
!systemend
/

&ELECTRONS
conv_thr =   2.0000000000d-10
electron_maxstep = 1000
mixing_beta =   4.0000000000d-01
/
K_POINTS {automatic}
5 7 9 0 0 0
ATOMIC_SPECIES
Fe  55.845  Fe.pbe-spn-kjpaw_psl.0.2.1.UPF
Na  22.98977  Na_ONCV_PBE-1.0.oncvpsp.upf
O  15.9994  O.pbe-n-kjpaw_psl.0.1.UPF
P  30.973761  P.pbe-n-rrkjus_psl.1.0.0.UPF
ATOMIC_POSITIONS {angstrom}
Na 0 0 0
Na 5.289900905882 0 2.514689254712
Na 0 3.16118514469 0
Na 5.289900905882 3.16118514469 2.514689254712
Fe 3.03661765591 4.74178403938 4.960878785123
Fe 2.253283249972 1.580592572345 2.446189530412
Fe 7.543184155853 1.580592572345 0.0684997243
Fe 8.326507982053 4.74178403938 2.583188979012
P 1.146219430772 4.74178403938 2.226054953862
P 4.14368147511 1.580592572345 4.740744208573
P 9.433582380992 1.580592572345 2.803323555562
P 6.436120336653 4.74178403938 0.28863430085
O 1.20621712686 4.74178403938 3.78420239036
O 4.083683779022 1.580592572345 1.269513135648
O 9.373584684903 1.580592572345 1.245181148412
O 6.496118032742 4.74178403938 3.759870403123
O 4.956755525503 4.74178403938 0.810328603467
O 0.333145380378 1.580592572345 3.325017858178
O 5.62304628626 1.580592572345 4.219049905957
O 10.246656431385 4.74178403938 1.704360651245
O 1.857706833688 5.972194566865 1.56822122121
O 3.432194072193 0.35018204486 4.082910475922
O 8.722094978075 2.81100309983 3.461157288213
O 7.14760773957 3.511373511895 0.946468033502
O 8.722094978075 0.35018204486 3.461157288213
O 7.14760773957 5.972194566865 0.946468033502
O 1.857706833688 3.511373511895 1.56822122121
O 3.432194072193 2.81100309983 4.082910475922
CELL_PARAMETERS {angstrom}
10.579738333333 0 0
0 6.322345 0
0 0 5.029348333333
!End