&CONTROL
calculation = "scf"
etot_conv_thr = 1.0d-5
forc_conv_thr = 1.0d-4
pseudo_dir = '/opt/QEpot/SSSP_precision_pseudos/'
disk_io = 'none'
tprnfor = .true.
tstress = .true.
verbosity = 'high'
/
!controlend

&SYSTEM
ntyp = 4
occupations = 'smearing'
smearing = 'cold'
degauss =   7.3498618000d-03
ecutrho = 1.080d+03
ecutwfc = 1.000d+02
ibrav = 0
nat = 28
nosym = .false.
starting_magnetization(1) =   3.1250000000d-01
starting_magnetization(2) =   0.0000000000d+00
starting_magnetization(3) =   0.0000000000d+00
starting_magnetization(4) =   0.0000000000d+00
nspin = 2
!systemend
/

&ELECTRONS
conv_thr =   2.0000000000d-10
electron_maxstep = 1000
mixing_beta =   4.0000000000d-01
/
K_POINTS {automatic}
5 7 9 0 0 0
ATOMIC_SPECIES
Fe  55.845  Fe.pbe-spn-kjpaw_psl.0.2.1.UPF
Na  22.98977  Na_ONCV_PBE-1.0.oncvpsp.upf
O  15.9994  O.pbe-n-kjpaw_psl.0.1.UPF
P  30.973761  P.pbe-n-rrkjus_psl.1.0.0.UPF
ATOMIC_POSITIONS {angstrom}
Na 0 0 0
Na 5.289900905882 0 2.4734648407
Na 0 3.16118514469 0
Na 5.289900905882 3.16118514469 2.4734648407
Fe 3.03661765591 4.74178403938 4.8795529034
Fe 2.253283249972 1.580592572345 2.4060880627
Fe 7.543184155853 1.580592572345 0.067376778
Fe 8.326507982053 4.74178403938 2.5408416187
P 1.146219430772 4.74178403938 2.1895622497
P 4.14368147511 1.580592572345 4.6630270904
P 9.433582380992 1.580592572345 2.7573674317
P 6.436120336653 4.74178403938 0.283902591
O 1.20621712686 4.74178403938 3.7221662856
O 4.083683779022 1.580592572345 1.2487014449
O 9.373584684903 1.580592572345 1.2247683427
O 6.496118032742 4.74178403938 3.6982331834
O 4.956755525503 4.74178403938 0.797044528
O 0.333145380378 1.580592572345 3.2705093687
O 5.62304628626 1.580592572345 4.1498851534
O 10.246656431385 4.74178403938 1.6764203127
O 1.857706833688 5.972194566865 1.5425126766
O 3.432194072193 0.35018204486 4.0159775173
O 8.722094978075 2.81100309983 3.4044170048
O 7.14760773957 3.511373511895 0.9309521641
O 8.722094978075 0.35018204486 3.4044170048
O 7.14760773957 5.972194566865 0.9309521641
O 1.857706833688 3.511373511895 1.5425126766
O 3.432194072193 2.81100309983 4.0159775173
CELL_PARAMETERS {angstrom}
10.579738333333 0 0
0 6.322345 0
0 0 4.9469
!End