&CONTROL
calculation = "scf"
etot_conv_thr = 1.0d-5
forc_conv_thr = 1.0d-4
pseudo_dir = '/opt/QEpot/SSSP_precision_pseudos/'
disk_io = 'none'
tprnfor = .true.
tstress = .true.
verbosity = 'high'
/
!controlend

&SYSTEM
ntyp = 4
occupations = 'smearing'
smearing = 'cold'
degauss =   7.3498618000d-03
ecutrho = 1.080d+03
ecutwfc = 1.000d+02
ibrav = 0
nat = 28
nosym = .false.
starting_magnetization(1) =   3.1250000000d-01
starting_magnetization(2) =   0.0000000000d+00
starting_magnetization(3) =   0.0000000000d+00
starting_magnetization(4) =   0.0000000000d+00
nspin = 2
!systemend
/

&ELECTRONS
conv_thr =   2.0000000000d-10
electron_maxstep = 1000
mixing_beta =   4.0000000000d-01
/
K_POINTS {automatic}
5 7 9 0 0 0
ATOMIC_SPECIES
Fe  55.845  Fe.pbe-spn-kjpaw_psl.0.2.1.UPF
Na  22.98977  Na_ONCV_PBE-1.0.oncvpsp.upf
O  15.9994  O.pbe-n-kjpaw_psl.0.1.UPF
P  30.973761  P.pbe-n-rrkjus_psl.1.0.0.UPF
ATOMIC_POSITIONS {angstrom}
Na 0 0 0
Na 5.376620592863 0 2.555913668723
Na 10.753176666667 3.21300785198 0
Na 5.376620592863 3.21300785198 2.555913668723
Fe 3.08639827322 4.81951820396 5.042204666847
Fe 2.290222319643 1.60650392599 2.486290998123
Fe 7.666842912507 1.60650392599 0.0696226706
Fe 8.463008112907 4.81951820396 2.625536339323
P 1.165009913243 4.81951820396 2.262547658023
P 4.21161067962 1.60650392599 4.818461326747
P 9.588231272483 1.60650392599 2.849279679423
P 6.541630506107 4.81951820396 0.2933660107
O 1.22599117812 4.81951820396 3.84623849512
O 4.150629414743 1.60650392599 1.290324826397
O 9.527250007607 1.60650392599 1.265593954123
O 6.602611770983 4.81951820396 3.821507622847
O 5.038013812807 4.81951820396 0.823612678933
O 0.338606780057 1.60650392599 3.379526347657
O 5.71522737292 1.60650392599 4.288214658513
O 10.41463440567 4.81951820396 1.73230098979
O 1.888161044077 6.07009939583 1.59392976582
O 3.488459548787 0.35592273412 4.149843434543
O 8.86508014165 2.85708511786 3.517897571627
O 7.26478163694 3.56893701209 0.961983902903
O 8.86508014165 0.35592273412 3.517897571627
O 7.26478163694 6.07009939583 0.961983902903
O 1.888161044077 3.56893701209 1.59392976582
O 3.488459548787 2.85708511786 4.149843434543
CELL_PARAMETERS {angstrom}
10.753176666667 0 0
0 6.42599 0
0 0 5.111796666667
!End