&CONTROL
calculation = "scf"
etot_conv_thr = 1.0d-5
forc_conv_thr = 1.0d-4
pseudo_dir = '/opt/QEpot/SSSP_precision_pseudos/'
disk_io = 'none'
tprnfor = .true.
tstress = .true.
verbosity = 'high'
/
!controlend

&SYSTEM
ntyp = 4
occupations = 'smearing'
smearing = 'cold'
degauss =   7.3498618000d-03
ecutrho = 1.080d+03
ecutwfc = 1.000d+02
ibrav = 0
nat = 28
nosym = .false.
starting_magnetization(1) =   3.1250000000d-01
starting_magnetization(2) =   0.0000000000d+00
starting_magnetization(3) =   0.0000000000d+00
starting_magnetization(4) =   0.0000000000d+00
nspin = 2
!systemend
/

&ELECTRONS
conv_thr =   2.0000000000d-10
electron_maxstep = 1000
mixing_beta =   4.0000000000d-01
/
K_POINTS {automatic}
5 7 9 0 0 0
ATOMIC_SPECIES
Fe  55.845  Fe.pbe-spn-kjpaw_psl.0.2.1.UPF
Na  22.98977  Na_ONCV_PBE-1.0.oncvpsp.upf
O  15.9994  O.pbe-n-kjpaw_psl.0.1.UPF
P  30.973761  P.pbe-n-rrkjus_psl.1.0.0.UPF
ATOMIC_POSITIONS {angstrom}
Na 0 0 0
Na 5.116461531918 0 2.4734648407
Na 0 3.05753973011 0
Na 5.116461531918 3.05753973011 2.4734648407
Fe 2.93705642129 4.58631571022 4.8795529034
Fe 2.179405110628 1.528769865055 2.4060880627
Fe 7.295866642547 1.528769865055 0.067376778
Fe 8.053507720347 4.58631571022 2.5408416187
P 1.108638465828 4.58631571022 2.1895622497
P 4.00782306609 1.528769865055 4.6630270904
P 9.124284598008 1.528769865055 2.7573674317
P 6.225099997747 4.58631571022 0.283902591
O 1.16666902434 4.58631571022 3.7221662856
O 3.949792507578 1.528769865055 1.2487014449
O 9.066254039497 1.528769865055 1.2247683427
O 6.283130556258 4.58631571022 3.6982331834
O 4.794238950897 4.58631571022 0.797044528
O 0.322222581022 1.528769865055 3.2705093687
O 5.43868411294 1.528769865055 4.1498851534
O 9.910700482815 4.58631571022 1.6764203127
O 1.796798412912 5.776384908935 1.5425126766
O 3.319663119007 0.33870066634 4.0159775173
O 8.436124650925 2.71883906377 3.4044170048
O 6.91325994483 3.396246511505 0.9309521641
O 8.436124650925 0.33870066634 3.4044170048
O 6.91325994483 5.776384908935 0.9309521641
O 1.796798412912 3.396246511505 1.5425126766
O 3.319663119007 2.71883906377 4.0159775173
CELL_PARAMETERS {angstrom}
10.232861666667 0 0
0 6.115055 0
0 0 4.9469
!End