&CONTROL
calculation = "scf"
etot_conv_thr = 1.0d-5
forc_conv_thr = 1.0d-4
pseudo_dir = '/opt/QEpot/SSSP_precision_pseudos/'
disk_io = 'none'
tprnfor = .true.
tstress = .true.
verbosity = 'high'
/
!controlend

&SYSTEM
ntyp = 4
occupations = 'smearing'
smearing = 'cold'
degauss =   7.3498618000d-03
ecutrho = 1.080d+03
ecutwfc = 1.000d+02
ibrav = 0
nat = 28
nosym = .false.
starting_magnetization(1) =   3.1250000000d-01
starting_magnetization(2) =   0.0000000000d+00
starting_magnetization(3) =   0.0000000000d+00
starting_magnetization(4) =   0.0000000000d+00
nspin = 2
!systemend
/

&ELECTRONS
conv_thr =   2.0000000000d-10
electron_maxstep = 1000
mixing_beta =   4.0000000000d-01
/
K_POINTS {automatic}
5 7 9 0 0 0
ATOMIC_SPECIES
Fe  55.845  Fe.pbe-spn-kjpaw_psl.0.2.1.UPF
Na  22.98977  Na_ONCV_PBE-1.0.oncvpsp.upf
O  15.9994  O.pbe-n-kjpaw_psl.0.1.UPF
P  30.973761  P.pbe-n-rrkjus_psl.1.0.0.UPF
ATOMIC_POSITIONS {angstrom}
Na 0 0 0
Na 5.029741844937 0 2.391016012677
Na 0 3.00571702282 0
Na 5.029741844937 3.00571702282 2.391016012677
Fe 2.88727580398 4.50858154564 4.716901139953
Fe 2.142466040957 1.50285851141 2.325885127277
Fe 7.172207885893 1.50285851141 0.0651308854
Fe 7.917007589493 4.50858154564 2.456146898077
P 1.089847983357 4.50858154564 2.116576841377
P 3.93989386158 1.50285851141 4.507592854053
P 8.969635706517 1.50285851141 2.665455183977
P 6.119589828293 4.50858154564 0.2744391713
O 1.14689497308 4.50858154564 3.59809407608
O 3.882846871857 1.50285851141 1.207078063403
O 8.912588716793 1.50285851141 1.183942731277
O 6.176636818017 4.50858154564 3.574958743953
O 4.712980663593 4.50858154564 0.770476377067
O 0.316761181343 1.50285851141 3.161492389743
O 5.34650302628 1.50285851141 4.011555648287
O 9.74272250853 4.50858154564 1.62053963561
O 1.766344202523 5.67848007997 1.49109558738
O 3.263397642413 0.33295997708 3.882111600057
O 8.29313948735 2.67275704574 3.290936437973
O 6.79608604746 3.33868301131 0.899920425297
O 8.29313948735 0.33295997708 3.290936437973
O 6.79608604746 5.67848007997 0.899920425297
O 1.766344202523 3.33868301131 1.49109558738
O 3.263397642413 2.67275704574 3.882111600057
CELL_PARAMETERS {angstrom}
10.059423333333 0 0
0 6.01141 0
0 0 4.782003333333
!End