&CONTROL
calculation = "scf"
etot_conv_thr = 1.0d-5
forc_conv_thr = 1.0d-4
pseudo_dir = '/opt/QEpot/SSSP_precision_pseudos/'
disk_io = 'none'
tprnfor = .true.
tstress = .true.
verbosity = 'high'
/
!controlend

&SYSTEM
ntyp = 4
occupations = 'smearing'
smearing = 'cold'
degauss =   7.3498618000d-03
ecutrho = 1.080d+03
ecutwfc = 1.000d+02
ibrav = 0
nat = 28
nosym = .false.
starting_magnetization(1) =   3.1250000000d-01
starting_magnetization(2) =   0.0000000000d+00
starting_magnetization(3) =   0.0000000000d+00
starting_magnetization(4) =   0.0000000000d+00
nspin = 2
!systemend
/

&ELECTRONS
conv_thr =   2.0000000000d-10
electron_maxstep = 1000
mixing_beta =   4.0000000000d-01
/
K_POINTS {automatic}
5 7 9 0 0 0
ATOMIC_SPECIES
Fe  55.845  Fe.pbe-spn-kjpaw_psl.0.2.1.UPF
Na  22.98977  Na_ONCV_PBE-1.0.oncvpsp.upf
O  15.9994  O.pbe-n-kjpaw_psl.0.1.UPF
P  30.973761  P.pbe-n-rrkjus_psl.1.0.0.UPF
ATOMIC_POSITIONS {angstrom}
Na 0 0 0
Na 4.943022157955 0 2.4734648407
Na 0 3.1093624374 0
Na 4.943022157955 3.1093624374 2.4734648407
Fe 2.83749518667 4.6640498748 4.8795529034
Fe 2.105526971285 1.5546812187 2.4060880627
Fe 7.04854912924 1.5546812187 0.067376778
Fe 7.78050745864 4.6640498748 2.5408416187
P 1.071057500885 4.6640498748 2.1895622497
P 3.87196465707 1.5546812187 4.6630270904
P 8.814986815025 1.5546812187 2.7573674317
P 6.01407965884 4.6640498748 0.283902591
O 1.12712092182 4.6640498748 3.7221662856
O 3.815901236135 1.5546812187 1.2487014449
O 8.75892339409 1.5546812187 1.2247683427
O 6.070143079775 4.6640498748 3.6982331834
O 4.63172237629 4.6640498748 0.797044528
O 0.311299781665 1.5546812187 3.2705093687
O 5.25432193962 1.5546812187 4.1498851534
O 9.574744534245 4.6640498748 1.6764203127
O 1.735889992135 5.8742897379 1.5425126766
O 3.20713216582 0.3444413556 4.0159775173
O 8.150154323775 2.7649210818 3.4044170048
O 6.67891215009 3.4538100117 0.9309521641
O 8.150154323775 0.3444413556 3.4044170048
O 6.67891215009 5.8742897379 0.9309521641
O 1.735889992135 3.4538100117 1.5425126766
O 3.20713216582 2.7649210818 4.0159775173
CELL_PARAMETERS {angstrom}
9.885985 0 0
0 6.2187 0
0 0 4.9469
!End