&CONTROL
calculation = "scf"
etot_conv_thr = 1.0d-5
forc_conv_thr = 1.0d-4
pseudo_dir = '/opt/QEpot/SSSP_precision_pseudos/'
disk_io = 'none'
tprnfor = .true.
tstress = .true.
verbosity = 'high'
/
!controlend

&SYSTEM
ntyp = 4
occupations = 'smearing'
smearing = 'cold'
degauss =   7.3498618000d-03
ecutrho = 1.080d+03
ecutwfc = 1.000d+02
ibrav = 0
nat = 28
nosym = .false.
starting_magnetization(1) =   3.1250000000d-01
starting_magnetization(2) =   0.0000000000d+00
starting_magnetization(3) =   0.0000000000d+00
starting_magnetization(4) =   0.0000000000d+00
nspin = 2
!systemend
/

&ELECTRONS
conv_thr =   2.0000000000d-10
electron_maxstep = 1000
mixing_beta =   4.0000000000d-01
/
K_POINTS {automatic}
5 7 9 0 0 0
ATOMIC_SPECIES
Fe  55.845  Fe.pbe-spn-kjpaw_psl.0.2.1.UPF
Na  22.98977  Na_ONCV_PBE-1.0.oncvpsp.upf
O  15.9994  O.pbe-n-kjpaw_psl.0.1.UPF
P  30.973761  P.pbe-n-rrkjus_psl.1.0.0.UPF
ATOMIC_POSITIONS {angstrom}
Na 0 0 0
Na 5.029741844937 6.01141 2.4734648407
Na 10.059423333333 3.00571702282 0
Na 5.029741844937 3.00571702282 2.4734648407
Fe 2.88727580398 4.50858154564 4.8795529034
Fe 2.142466040957 1.50285851141 2.4060880627
Fe 7.172207885893 1.50285851141 0.067376778
Fe 7.917007589493 4.50858154564 2.5408416187
P 1.089847983357 4.50858154564 2.1895622497
P 3.93989386158 1.50285851141 4.6630270904
P 8.969635706517 1.50285851141 2.7573674317
P 6.119589828293 4.50858154564 0.283902591
O 1.14689497308 4.50858154564 3.7221662856
O 3.882846871857 1.50285851141 1.2487014449
O 8.912588716793 1.50285851141 1.2247683427
O 6.176636818017 4.50858154564 3.6982331834
O 4.712980663593 4.50858154564 0.797044528
O 0.316761181343 1.50285851141 3.2705093687
O 5.34650302628 1.50285851141 4.1498851534
O 9.74272250853 4.50858154564 1.6764203127
O 1.766344202523 5.67848007997 1.5425126766
O 3.263397642413 0.33295997708 4.0159775173
O 8.29313948735 2.67275704574 3.4044170048
O 6.79608604746 3.33868301131 0.9309521641
O 8.29313948735 0.33295997708 3.4044170048
O 6.79608604746 5.67848007997 0.9309521641
O 1.766344202523 3.33868301131 1.5425126766
O 3.263397642413 2.67275704574 4.0159775173
CELL_PARAMETERS {angstrom}
10.059423333333 0 0
0 6.01141 0
0 0 4.9469
!End