&CONTROL
calculation = "scf"
etot_conv_thr = 1.0d-5
forc_conv_thr = 1.0d-4
pseudo_dir = '/opt/QEpot/SSSP_precision_pseudos/'
disk_io = 'none'
tprnfor = .true.
tstress = .true.
verbosity = 'high'
/
!controlend

&SYSTEM
ntyp = 4
occupations = 'smearing'
smearing = 'cold'
degauss =   7.3498618000d-03
ecutrho = 1.080d+03
ecutwfc = 1.000d+02
ibrav = 0
nat = 28
nosym = .false.
starting_magnetization(1) =   3.1250000000d-01
starting_magnetization(2) =   0.0000000000d+00
starting_magnetization(3) =   0.0000000000d+00
starting_magnetization(4) =   0.0000000000d+00
nspin = 2
!systemend
/

&ELECTRONS
conv_thr =   2.0000000000d-10
electron_maxstep = 1000
mixing_beta =   4.0000000000d-01
/
K_POINTS {automatic}
5 7 9 0 0 0
ATOMIC_SPECIES
Fe  55.845  Fe.pbe-spn-kjpaw_psl.0.2.1.UPF
Na  22.98977  Na_ONCV_PBE-1.0.oncvpsp.upf
O  15.9994  O.pbe-n-kjpaw_psl.0.1.UPF
P  30.973761  P.pbe-n-rrkjus_psl.1.0.0.UPF
ATOMIC_POSITIONS {angstrom}
Na 0 0 0
Na 4.943022157955 5.907765 2.349791598665
Na 0 2.95389431553 0
Na 4.943022157955 2.95389431553 2.349791598665
Fe 2.83749518667 4.43084738106 4.63557525823
Fe 2.105526971285 1.476947157765 2.285783659565
Fe 7.04854912924 1.476947157765 0.0640079391
Fe 7.78050745864 4.43084738106 2.413799537765
P 1.071057500885 4.43084738106 2.080084137215
P 3.87196465707 1.476947157765 4.42987573588
P 8.814986815025 1.476947157765 2.619499060115
P 6.01407965884 4.43084738106 0.26970746145
O 1.12712092182 4.43084738106 3.53605797132
O 3.815901236135 1.476947157765 1.186266372655
O 8.75892339409 1.476947157765 1.163529925565
O 6.070143079775 4.43084738106 3.51332152423
O 4.63172237629 4.43084738106 0.7571923016
O 0.311299781665 1.476947157765 3.106983900265
O 5.25432193962 1.476947157765 3.94239089573
O 9.574744534245 4.43084738106 1.592599297065
O 1.735889992135 5.580575251005 1.46538704277
O 3.20713216582 0.32721928782 3.815178641435
O 8.150154323775 2.62667502771 3.23419615456
O 6.67891215009 3.281119511115 0.884404555895
O 8.150154323775 0.32721928782 3.23419615456
O 6.67891215009 5.580575251005 0.884404555895
O 1.735889992135 3.281119511115 1.46538704277
O 3.20713216582 2.62667502771 3.815178641435
CELL_PARAMETERS {angstrom}
9.885985 0 0
0 5.907765 0
0 0 4.699555
!End