&CONTROL
calculation = "scf"
etot_conv_thr = 1.0d-5
forc_conv_thr = 1.0d-4
pseudo_dir = '/opt/QEpot/SSSP_precision_pseudos/'
disk_io = 'none'
tprnfor = .true.
tstress = .true.
verbosity = 'high'
/
!controlend

&SYSTEM
ntyp = 4
occupations = 'smearing'
smearing = 'cold'
degauss =   7.3498618000d-03
ecutrho =   1.080d+03
ecutwfc =   1.000d+02
ibrav = 0
nat = 25
nosym = .false.
starting_magnetization(1) =   3.1250000000d-01
starting_magnetization(2) =   0.0000000000d+00
starting_magnetization(3) =   0.0000000000d+00
starting_magnetization(4) =   0.0000000000d+00
nspin = 2
!systemend
/

&ELECTRONS
conv_thr =   2.0000000000d-10
electron_maxstep = 1000
mixing_beta =   4.0000000000d-01
/
K_POINTS {automatic}
5 7 9 0 0 0
ATOMIC_SPECIES
Fe  55.845  Fe.pbe-spn-kjpaw_psl.0.2.1.UPF
Na  22.98977  Na_ONCV_PBE-1.0.oncvpsp.upf
O  15.9994  O.pbe-n-kjpaw_psl.0.1.UPF
P  30.973761  P.pbe-n-rrkjus_psl.1.0.0.UPF
ATOMIC_POSITIONS {angstrom}
Na 5.203180021 3.1093652028 2.4734653355
Fe 2.8787375233 4.6922721699 4.9248447376
Fe 2.2190940475 1.5326379181 2.4242500754
Fe 7.5276215631 1.5264586977 0.0220841364
Fe 8.1872651462 4.6860919639 2.5226819569
P 1.1280940877 4.6568715196 2.2018496827
P 4.0782240026 1.5294698605 4.676466232
P 9.2782631434 1.5618593743 2.7450865944
P 6.3281396351 4.6892598707 0.270444336
O 1.3723464114 4.6535144096 3.7227374966
O 3.8622766372 1.5787277967 1.2583017194
O 9.0340126785 1.5652163858 1.2241884877
O 6.5440820885 4.6400033122 3.688641146
O 4.8079951239 4.6329084449 0.6073650613
O 0.3883169469 1.5645385269 3.0465490684
O 5.5983614029 1.5858222826 4.3395663955
O 10.0180449391 4.6541920354 1.9003809509
O 1.8593681921 5.8763393994 1.5020375047
O 3.3541699001 0.3101802523 3.9998264649
O 8.5270065863 2.7595202414 3.4533699717
O 7.0412959946 3.4804110061 1.012600297
O 8.5469926374 0.3423925885 3.4448915215
O 7.0521916483 5.9085533786 0.9471054018
O 1.8793545853 3.4592085273 1.4935590121
O 3.3650650577 2.7383178347 3.9343314136
CELL_PARAMETERS {angstrom}
10.4063 0 0
0 6.2187 0
0 0 4.9469
!End