&CONTROL
calculation = "scf"
etot_conv_thr = 1.0d-5
forc_conv_thr = 1.0d-4
pseudo_dir = '/opt/QEpot/SSSP_precision_pseudos/'
disk_io = 'none'
tprnfor = .true.
tstress = .true.
verbosity = 'high'
/
!controlend

&SYSTEM
ntyp = 4
occupations = 'smearing'
smearing = 'cold'
degauss =   7.3498618000d-03
ecutrho = 1.080d+03
ecutwfc = 1.000d+02
ibrav = 0
nat = 25
nosym = .false.
starting_magnetization(1) =   3.1250000000d-01
starting_magnetization(2) =   0.0000000000d+00
starting_magnetization(3) =   0.0000000000d+00
starting_magnetization(4) =   0.0000000000d+00
nspin = 2
!systemend
/

&ELECTRONS
conv_thr =   2.0000000000d-10
electron_maxstep = 1000
mixing_beta =   4.0000000000d-01
/
K_POINTS {automatic}
5 7 9 0 0 0
ATOMIC_SPECIES
Fe  55.845  Fe.pbe-spn-kjpaw_psl.0.2.1.UPF
Na  22.98977  Na_ONCV_PBE-1.0.oncvpsp.upf
O  15.9994  O.pbe-n-kjpaw_psl.0.1.UPF
P  30.973761  P.pbe-n-rrkjus_psl.1.0.0.UPF
ATOMIC_POSITIONS {angstrom}
Na 5.376620592863 3.1093624374 2.4734648407
Fe 2.974694274007 4.6922703354 4.9248467198
Fe 2.293061158283 1.5326359272 2.4242481326
Fe 7.77854691172 1.5264607581 0.0220829616
Fe 8.460169274267 4.6860889476 2.5226815488
P 1.16569811655 4.656873495 2.2018503493
P 4.214169935667 1.5294706089 4.6764678177
P 9.587543069177 1.5618575985 2.745084279
P 6.539082003237 4.6892604846 0.2704420761
O 1.418085926093 4.653515397 3.7227351791
O 3.99102001348 1.5787289316 1.2583033778
O 9.335144506457 1.5652156965 1.2241895554
O 6.762221172247 4.6400021619 3.6886411443
O 4.96825795577 4.6329066252 0.6073655413
O 0.401265540493 1.5645378582 3.046548365
O 5.78497247678 1.5858244683 4.3395641401
O 10.351975645233 4.6541932353 1.9003813164
O 1.92134534727 5.8763419089 1.5020371408
O 3.465974656377 0.3101825373 3.9998258888
O 8.81123898608 2.7595232502 3.4533715272
O 7.27600795338 3.4804136103 1.0126007486
O 8.831895838457 0.3423954033 3.4448925406
O 7.28726652935 5.9085547749 0.9471037926
O 1.942002199647 3.4592078433 1.4935581542
O 3.477233232347 2.7383174832 3.9343338797
CELL_PARAMETERS {angstrom}
10.753176666667 0 0
0 6.2187 0
0 0 4.9469
!End