&CONTROL
calculation = "scf"
etot_conv_thr = 1.0d-5
forc_conv_thr = 1.0d-4
pseudo_dir = '/opt/QEpot/SSSP_precision_pseudos/'
disk_io = 'none'
tprnfor = .true.
tstress = .true.
verbosity = 'high'
/
!controlend

&SYSTEM
ntyp = 4
occupations = 'smearing'
smearing = 'cold'
degauss =   7.3498618000d-03
ecutrho = 1.080d+03
ecutwfc = 1.000d+02
ibrav = 0
nat = 25
nosym = .false.
starting_magnetization(1) =   3.1250000000d-01
starting_magnetization(2) =   0.0000000000d+00
starting_magnetization(3) =   0.0000000000d+00
starting_magnetization(4) =   0.0000000000d+00
nspin = 2
!systemend
/

&ELECTRONS
conv_thr =   2.0000000000d-10
electron_maxstep = 1000
mixing_beta =   4.0000000000d-01
/
K_POINTS {automatic}
5 7 9 0 0 0
ATOMIC_SPECIES
Fe  55.845  Fe.pbe-spn-kjpaw_psl.0.2.1.UPF
Na  22.98977  Na_ONCV_PBE-1.0.oncvpsp.upf
O  15.9994  O.pbe-n-kjpaw_psl.0.1.UPF
P  30.973761  P.pbe-n-rrkjus_psl.1.0.0.UPF
ATOMIC_POSITIONS {angstrom}
Na 5.463340279845 3.26483055927 2.597138082735
Fe 3.02267321391 4.92688385217 5.17108905579
Fe 2.330046015675 1.60926772356 2.54546053923
Fe 7.90400734578 1.602783796005 0.02318710968
Fe 8.5966236174 4.92039339498 2.64881562624
P 1.184499699075 4.88971716975 2.311942866765
P 4.2821404185 1.605944139345 4.910291208585
P 9.742180860615 1.639950478425 2.88233849295
P 6.644551067805 4.92372350883 0.283964179905
O 1.44095827974 4.88619116685 3.908871938055
O 4.05539130402 1.65766537818 1.32121854669
O 9.485711353335 1.643476481325 1.28539903317
O 6.87128925567 4.872002269995 3.873073201515
O 5.048391148605 4.86455195646 0.637733818365
O 0.40773756534 1.64276475111 3.19887578325
O 5.87827848447 1.665115691715 4.556542347105
O 10.51894299435 4.886902897065 1.99540038222
O 1.952334788355 6.170159004345 1.57713899784
O 3.521877473415 0.325691664165 4.19981718324
O 8.95335574392 2.89749941271 3.62604010356
O 7.39336292037 3.654434290815 1.06323078603
O 8.974345771335 0.359515173465 3.61713716763
O 7.404803086275 6.203982513645 0.99445898223
O 1.97332481577 3.632168235465 1.56823606191
O 3.53331763932 2.87523335736 4.131050573685
CELL_PARAMETERS {angstrom}
10.926615 0 0
0 6.529635 0
0 0 5.194245
!End