&CONTROL
calculation = "scf"
etot_conv_thr = 1.0d-5
forc_conv_thr = 1.0d-4
pseudo_dir = '/opt/QEpot/SSSP_precision_pseudos/'
disk_io = 'none'
tprnfor = .true.
tstress = .true.
verbosity = 'high'
/
!controlend

&SYSTEM
ntyp = 4
occupations = 'smearing'
smearing = 'cold'
degauss =   7.3498618000d-03
ecutrho = 1.080d+03
ecutwfc = 1.000d+02
ibrav = 0
nat = 25
nosym = .false.
starting_magnetization(1) =   3.1250000000d-01
starting_magnetization(2) =   0.0000000000d+00
starting_magnetization(3) =   0.0000000000d+00
starting_magnetization(4) =   0.0000000000d+00 
nspin = 2
!systemend
/

&ELECTRONS
conv_thr =   2.0000000000d-10
electron_maxstep = 1000
mixing_beta =   4.0000000000d-01
/
K_POINTS {automatic}
5 7 9 0 0 0
ATOMIC_SPECIES
Fe  55.845  Fe.pbe-spn-kjpaw_psl.0.2.1.UPF
Na  22.98977  Na_ONCV_PBE-1.0.oncvpsp.upf
O  15.9994  O.pbe-n-kjpaw_psl.0.1.UPF
P  30.973761  P.pbe-n-rrkjus_psl.1.0.0.UPF
ATOMIC_POSITIONS {angstrom}
Na 5.463340279845 3.26483055927 2.4734648407
Fe 3.02267321391 4.92688385217 4.9248467198
Fe 2.330046015675 1.60926772356 2.4242481326
Fe 7.90400734578 1.602783796005 0.0220829616
Fe 8.5966236174 4.92039339498 2.5226815488
P 1.184499699075 4.88971716975 2.2018503493
P 4.2821404185 1.605944139345 4.6764678177
P 9.742180860615 1.639950478425 2.745084279
P 6.644551067805 4.92372350883 0.2704420761
O 1.44095827974 4.88619116685 3.7227351791
O 4.05539130402 1.65766537818 1.2583033778
O 9.485711353335 1.643476481325 1.2241895554
O 6.87128925567 4.872002269995 3.6886411443
O 5.048391148605 4.86455195646 0.6073655413
O 0.40773756534 1.64276475111 3.046548365
O 5.87827848447 1.665115691715 4.3395641401
O 10.51894299435 4.886902897065 1.9003813164
O 1.952334788355 6.170159004345 1.5020371408
O 3.521877473415 0.325691664165 3.9998258888
O 8.95335574392 2.89749941271 3.4533715272
O 7.39336292037 3.654434290815 1.0126007486
O 8.974345771335 0.359515173465 3.4448925406
O 7.404803086275 6.203982513645 0.9471037926
O 1.97332481577 3.632168235465 1.4935581542
O 3.53331763932 2.87523335736 3.9343338797
CELL_PARAMETERS {angstrom}
10.926615 0 0
0 6.529635 0
0 0 4.9469
!End