&CONTROL
calculation = "scf"
etot_conv_thr = 1.0d-5
forc_conv_thr = 1.0d-4
pseudo_dir = '/opt/QEpot/SSSP_precision_pseudos/'
disk_io = 'none'
tprnfor = .true.
tstress = .true.
verbosity = 'high'
/
!controlend

&SYSTEM
ntyp = 4
occupations = 'smearing'
smearing = 'cold'
degauss =   7.3498618000d-03
ecutrho = 1.080d+03
ecutwfc = 1.000d+02
ibrav = 0
nat = 25
nosym = .false.
starting_magnetization(1) =   3.1250000000d-01
starting_magnetization(2) =   0.0000000000d+00
starting_magnetization(3) =   0.0000000000d+00
starting_magnetization(4) =   0.0000000000d+00 
nspin = 2
!systemend
/

&ELECTRONS
conv_thr =   2.0000000000d-10
electron_maxstep = 1000
mixing_beta =   4.0000000000d-01
/
K_POINTS {automatic}
5 7 9 0 0 0
ATOMIC_SPECIES
Fe  55.845  Fe.pbe-spn-kjpaw_psl.0.2.1.UPF
Na  22.98977  Na_ONCV_PBE-1.0.oncvpsp.upf
O  15.9994  O.pbe-n-kjpaw_psl.0.1.UPF
P  30.973761  P.pbe-n-rrkjus_psl.1.0.0.UPF
ATOMIC_POSITIONS {angstrom}
Na 5.289900905882 3.16118514469 2.4734648407
Fe 2.926715334103 4.77047484099 4.9248467198
Fe 2.256076300892 1.55817985932 2.4242481326
Fe 7.65308647766 1.551901770735 0.0220829616
Fe 8.323714931133 4.76419043006 2.5226815488
P 1.146896534025 4.73448805325 2.2018503493
P 4.146199452833 1.554961785715 4.6764678177
P 9.432905277738 1.587888558475 2.745084279
P 6.433612938668 4.76741482601 0.2704420761
O 1.395213572447 4.73107398695 3.7227351791
O 3.92664872294 1.60504108046 1.2583033778
O 9.184577659578 1.591302624775 1.2241895554
O 6.653153088823 4.717335531265 3.6886411443
O 4.888124762935 4.71012173562 0.6073655413
O 0.394793515647 1.59061348917 3.046548365
O 5.69166646909 1.612254876105 4.3395641401
O 10.185008296117 4.731763122555 1.9003813164
O 1.890355906185 5.974280940715 1.5020371408
O 3.410071839338 0.315352246255 3.9998258888
O 8.66912222824 2.80551530437 3.4533715272
O 7.15865298639 3.538420503805 1.0126007486
O 8.689445905578 0.348101993355 3.4448925406
O 7.169729972425 6.007030687815 0.9471037926
O 1.910679583523 3.516861307355 1.4935581542
O 3.421148825373 2.78395610792 3.9343338797
CELL_PARAMETERS {angstrom}
10.579738333333 0 0
0 6.322345 0
0 0 4.9469
!End