&CONTROL
calculation = "scf"
etot_conv_thr = 1.0d-5
forc_conv_thr = 1.0d-4
pseudo_dir = '/opt/QEpot/SSSP_precision_pseudos/'
disk_io = 'none'
tprnfor = .true.
tstress = .true.
verbosity = 'high'
/
!controlend

&SYSTEM
ntyp = 4
occupations = 'smearing'
smearing = 'cold'
degauss =   7.3498618000d-03
ecutrho = 1.080d+03
ecutwfc = 1.000d+02
ibrav = 0
nat = 25
nosym = .false.
starting_magnetization(1) =   3.1250000000d-01
starting_magnetization(2) =   0.0000000000d+00
starting_magnetization(3) =   0.0000000000d+00
starting_magnetization(4) =   0.0000000000d+00 
nspin = 2
!systemend
/

&ELECTRONS
conv_thr =   2.0000000000d-10
electron_maxstep = 1000
mixing_beta =   4.0000000000d-01
/
K_POINTS {automatic}
5 7 9 0 0 0
ATOMIC_SPECIES
Fe  55.845  Fe.pbe-spn-kjpaw_psl.0.2.1.UPF
Na  22.98977  Na_ONCV_PBE-1.0.oncvpsp.upf
O  15.9994  O.pbe-n-kjpaw_psl.0.1.UPF
P  30.973761  P.pbe-n-rrkjus_psl.1.0.0.UPF
ATOMIC_POSITIONS {angstrom}
Na 5.029741844937 3.00571702282 2.391016012677
Fe 2.782778514393 4.53586132422 4.760685162473
Fe 2.145121728717 1.48154806296 2.343439861513
Fe 7.27670517548 1.47557873283 0.02134686288
Fe 7.914351901733 4.52988598268 2.43859216384
P 1.09049178645 4.5016443785 2.128455337657
P 3.942288004333 1.47848825527 4.52058555711
P 8.968991903423 1.50979567855 2.6535814697
P 6.117205744963 4.53295180178 0.26142734023
O 1.326596511507 4.4983982171 3.598644006463
O 3.73353485132 1.52610463388 1.216359931873
O 8.732877118943 1.51304183995 1.183383236887
O 6.325948838553 4.48533542317 3.56568643949
O 4.64772518443 4.47847640436 0.587120023257
O 0.375377441107 1.51238659626 2.944996752833
O 5.41174844602 1.53296365269 4.194912002097
O 9.684106248767 4.49905346079 1.83703527252
O 1.79738758293 5.68046384527 1.451969236107
O 3.242363388223 0.29984311939 3.866498359173
O 8.24277195472 2.66753914186 3.33825914296
O 6.80658808542 3.36439982329 0.978847390313
O 8.262096106943 0.33098222319 3.330062789247
O 6.81712030165 5.71160294907 0.91553366618
O 1.816711735153 3.34390091519 1.443772882393
O 3.252895604453 2.64704023376 3.803189417043
CELL_PARAMETERS {angstrom}
10.059423333333 0 0
0 6.01141 0
0 0 4.782003333333
!End