&CONTROL
calculation = "scf"
etot_conv_thr = 1.0d-5
forc_conv_thr = 1.0d-4
pseudo_dir = '/opt/QEpot/SSSP_precision_pseudos/'
disk_io = 'none'
tprnfor = .true.
tstress = .true.
verbosity = 'high'
/
!controlend

&SYSTEM
ntyp = 4
occupations = 'smearing'
smearing = 'cold'
degauss =   7.3498618000d-03
ecutrho =   1.080d+03
ecutwfc =   1.000d+02
ibrav = 0
nat = 25
nosym = .false.
starting_magnetization(1) =   3.1250000000d-01
starting_magnetization(2) =   0.0000000000d+00
starting_magnetization(3) =   0.0000000000d+00
starting_magnetization(4) =   0.0000000000d+00
nspin = 2
!systemend
/

&ELECTRONS
conv_thr =   2.0000000000d-10
electron_maxstep = 1000
mixing_beta =   4.0000000000d-01
/
K_POINTS {automatic}
5 7 9 0 0 0
ATOMIC_SPECIES
Fe  55.845  Fe.pbe-spn-kjpaw_psl.0.2.1.UPF
Na  22.98977  Na_ONCV_PBE-1.0.oncvpsp.upf
O  15.9994  O.pbe-n-kjpaw_psl.0.1.UPF
P  30.973761  P.pbe-n-rrkjus_psl.1.0.0.UPF
ATOMIC_POSITIONS {angstrom}
Na 5.2031800044 2.233e-07 2.4734645572
Fe 2.8787427612 4.635837989 4.9248470128
Fe 2.219092106 1.5766934744 2.4242435574
Fe 7.5276178815 1.5828931333 0.0220848935
Fe 8.187269042 4.6420372246 2.5226842071
P 1.1280983744 4.6712126592 2.2018420368
P 4.078220367 1.5799020284 4.6764868972
P 9.2782634625 1.547518341 2.7450791849
P 6.3281363442 4.6388271902 0.2704654122
O 1.3723501406 4.6745845545 3.7227418544
O 3.8622770176 1.5306310862 1.2582873898
O 9.0340107728 1.5441459963 1.2241936747
O 6.5440847661 4.6881001669 3.6886281945
O 4.80799993 4.6951970218 0.6073637683
O 0.3883141811 1.5448239098 3.0465488923
O 5.598363547 1.5235334053 4.3395646746
O 10.0180444983 4.673906615 1.900381343
O 1.8793566843 5.8688748102 1.4935562547
O 3.3650555183 0.371056777 3.9343241555
O 8.54699379 2.7669849738 3.4448908159
O 7.0521805641 3.4195329768 0.9470967884
O 8.5270020765 0.3498536949 3.4533747131
O 7.0413032645 5.8476713288 1.0126040089
O 1.8593651992 3.451747231 1.5020399749
O 3.3541777064 2.7992011883 3.999830738
CELL_PARAMETERS {angstrom}
10.4063 0 0
0 6.2187 0
0 0 4.9469
!End