&CONTROL
calculation = "scf"
etot_conv_thr = 1.0d-5
forc_conv_thr = 1.0d-4
pseudo_dir = '/opt/QEpot/SSSP_precision_pseudos/'
disk_io = 'none'
tprnfor = .true.
tstress = .true.
verbosity = 'high'
/
!controlend

&SYSTEM
ntyp = 4
occupations = 'smearing'
smearing = 'cold'
degauss =   7.3498618000d-03
ecutrho = 1.080d+03
ecutwfc = 1.000d+02
ibrav = 0
nat = 25
nosym = .false.
starting_magnetization(1) =   3.1250000000d-01
starting_magnetization(2) =   0.0000000000d+00
starting_magnetization(3) =   0.0000000000d+00
starting_magnetization(4) =   0.0000000000d+00
nspin = 2
!systemend
/

&ELECTRONS
conv_thr =   2.0000000000d-10
electron_maxstep = 1000
mixing_beta =   4.0000000000d-01
/
K_POINTS {automatic}
5 7 9 0 0 0
ATOMIC_SPECIES
Fe  55.845  Fe.pbe-spn-kjpaw_psl.0.2.1.UPF
Na  22.98977  Na_ONCV_PBE-1.0.oncvpsp.upf
O  15.9994  O.pbe-n-kjpaw_psl.0.1.UPF
P  30.973761  P.pbe-n-rrkjus_psl.1.0.0.UPF
ATOMIC_POSITIONS {angstrom}
Na 5.664558404467 0.506450928 2.3998797032
Fe 2.984060290883 4.6736515476 4.9143444511
Fe 2.266436292857 1.5828332736 2.425415601
Fe 7.80725789342 1.6222287381 0.0276630648
Fe 8.43270566106 4.646426079 2.5244179107
P 1.148933914127 4.6835703741 2.1983479441
P 4.18586757468 1.6093933413 4.6721343333
P 9.58340309616 1.5585492501 2.7541816281
P 6.52394153049 4.6727622735 0.2774023644
O 1.420333340017 4.6975997613 3.7173925271
O 3.932425953823 1.5644010468 1.2477763746
O 9.356177720017 1.5671808057 1.2298438621
O 6.757930654757 4.7167906695 3.6963088393
O 4.958106956997 4.7221885011 0.6119859459
O 0.388071392723 1.5509873109 3.0841695395
O 5.774789218477 1.5913217991 4.4058377594
O 10.328264890683 4.6830728781 1.9212226061
O 1.90537687992 5.8869136989 1.4796029493
O 3.499825656523 0.3911686674 3.9110982904
O 8.813615438123 2.7764318955 3.447890362
O 7.280642572523 3.4581195708 0.971719567
O 8.78139892083 0.367898292 3.444724346
O 7.28578259097 5.8809934965 1.0000850916
O 1.89024716035 3.4626281283 1.4944683838
O 3.445317804 2.8195461426 3.9787125196
CELL_PARAMETERS {angstrom}
10.753176666667 0 0
0 6.2187 0
0 0 4.9469
!End