&CONTROL
calculation = "scf"
etot_conv_thr = 1.0d-5
forc_conv_thr = 1.0d-4
pseudo_dir = '/opt/QEpot/SSSP_precision_pseudos/'
disk_io = 'none'
tprnfor = .true.
tstress = .true.
verbosity = 'high'
/
!controlend

&SYSTEM
ntyp = 4
occupations = 'smearing'
smearing = 'cold'
degauss =   7.3498618000d-03
ecutrho = 1.080d+03
ecutwfc = 1.000d+02
ibrav = 0
nat = 25
nosym = .false.
starting_magnetization(1) =   3.1250000000d-01
starting_magnetization(2) =   0.0000000000d+00
starting_magnetization(3) =   0.0000000000d+00
starting_magnetization(4) =   0.0000000000d+00
nspin = 2
!systemend
/

&ELECTRONS
conv_thr =   2.0000000000d-10
electron_maxstep = 1000
mixing_beta =   4.0000000000d-01
/
K_POINTS {automatic}
5 7 9 0 0 0
ATOMIC_SPECIES
Fe  55.845  Fe.pbe-spn-kjpaw_psl.0.2.1.UPF
Na  22.98977  Na_ONCV_PBE-1.0.oncvpsp.upf
O  15.9994  O.pbe-n-kjpaw_psl.0.1.UPF
P  30.973761  P.pbe-n-rrkjus_psl.1.0.0.UPF
ATOMIC_POSITIONS {angstrom}
Na 5.7559222497 0.5317734744 2.3998797032
Fe 3.032190295575 4.90733412498 4.9143444511
Fe 2.302991716935 1.66197493728 2.425415601
Fe 7.93318140783 1.703340175005 0.0276630648
Fe 8.56871704269 4.87874738295 2.5244179107
P 1.16746510629 4.917748892805 2.1983479441
P 4.25338156782 1.689863008365 4.6721343333
P 9.73797411384 1.636476712605 2.7541816281
P 6.629166393885 4.906400387175 0.2774023644
O 1.443241942275 4.932479749365 3.7173925271
O 3.995852178885 1.64262109914 1.2477763746
O 9.507083812275 1.645539845985 1.2298438621
O 6.866929536285 4.952630202975 3.6963088393
O 5.038076424045 4.958297926155 0.6119859459
O 0.394330608735 1.628536676445 3.0841695395
O 5.867930980065 1.670887889055 4.4058377594
O 10.494849808275 4.917226522005 1.9212226061
O 1.93610876508 6.181259383845 1.4796029493
O 3.556274457435 0.41072710077 3.9110982904
O 8.955770525835 2.915253490275 3.447890362
O 7.398072291435 3.63102554934 0.971719567
O 8.923034387295 0.3862932066 3.444724346
O 7.403295213405 6.175043171325 1.0000850916
O 1.920735017775 3.635759534715 1.4944683838
O 3.500887446 2.96052344973 3.9787125196
CELL_PARAMETERS {angstrom}
10.926615 0 0
0 6.529635 0
0 0 4.9469
!End