&CONTROL
calculation = "scf"
etot_conv_thr = 1.0d-5
forc_conv_thr = 1.0d-4
pseudo_dir = '/opt/QEpot/SSSP_precision_pseudos/'
disk_io = 'none'
tprnfor = .true.
tstress = .true.
verbosity = 'high'
/
!controlend

&SYSTEM
ntyp = 4
occupations = 'smearing'
smearing = 'cold'
degauss =   7.3498618000d-03
ecutrho = 1.080d+03
ecutwfc = 1.000d+02
ibrav = 0
nat = 25
nosym = .false.
starting_magnetization(1) =   3.1250000000d-01
starting_magnetization(2) =   0.0000000000d+00
starting_magnetization(3) =   0.0000000000d+00
starting_magnetization(4) =   0.0000000000d+00
nspin = 2
!systemend
/

&ELECTRONS
conv_thr =   2.0000000000d-10
electron_maxstep = 1000
mixing_beta =   4.0000000000d-01
/
K_POINTS {automatic}
5 7 9 0 0 0
ATOMIC_SPECIES
Fe  55.845  Fe.pbe-spn-kjpaw_psl.0.2.1.UPF
Na  22.98977  Na_ONCV_PBE-1.0.oncvpsp.upf
O  15.9994  O.pbe-n-kjpaw_psl.0.1.UPF
P  30.973761  P.pbe-n-rrkjus_psl.1.0.0.UPF
ATOMIC_POSITIONS {angstrom}
Na 5.299103023533 0.4895692304 2.3998797032
Fe 2.791540272117 4.51786316268 4.9143444511
Fe 2.120214596543 1.53007216448 2.425415601
Fe 7.30356383578 1.56815444683 0.0276630648
Fe 7.88866013454 4.4915452097 2.5244179107
P 1.074809145473 4.52745136163 2.1983479441
P 3.91581160212 1.55574689659 4.6721343333
P 8.96511902544 1.50659760843 2.7541816281
P 6.10304207691 4.51700353105 0.2774023644
O 1.328698930983 4.54101310259 3.7173925271
O 3.678721053577 1.51225434524 1.2477763746
O 8.752553350983 1.51494144551 1.2298438621
O 6.321935128643 4.55956431385 3.6963088393
O 4.638229088803 4.56478221773 0.6119859459
O 0.363034528677 1.49928773387 3.0841695395
O 5.402222172123 1.53827773913 4.4058377594
O 9.661925220317 4.52697044883 1.9212226061
O 1.78244933928 5.69068324227 1.4796029493
O 3.274030452877 0.37812971182 3.9110982904
O 8.244995087277 2.68388416565 3.447890362
O 6.810923696877 3.34284891844 0.971719567
O 8.21485705497 0.3556350156 3.444724346
O 6.81573210123 5.68496037995 1.0000850916
O 1.76829573065 3.34720719069 1.4944683838
O 3.223039236 2.72556127118 3.9787125196
CELL_PARAMETERS {angstrom}
10.059423333333 0 0
0 6.01141 0
0 0 4.9469
!End