&CONTROL
calculation = "scf"
etot_conv_thr = 1.0d-5
forc_conv_thr = 1.0d-4
pseudo_dir = '/opt/QEpot/SSSP_precision_pseudos/'
disk_io = 'none'
tprnfor = .true.
tstress = .true.
verbosity = 'high'
/
!controlend

&SYSTEM
ntyp = 4
occupations = 'smearing'
smearing = 'cold'
degauss =   7.3498618000d-03
ecutrho =   1.080d+03
ecutwfc =   1.000d+02
ibrav = 0
nat = 25
nosym = .false.
starting_magnetization(1) =   3.1250000000d-01
starting_magnetization(2) =   0.0000000000d+00
starting_magnetization(3) =   0.0000000000d+00
starting_magnetization(4) =   0.0000000000d+00
nspin = 2
!systemend
/

&ELECTRONS
conv_thr =   2.0000000000d-10
electron_maxstep = 1000
mixing_beta =   4.0000000000d-01
/
K_POINTS {automatic}
5 7 9 0 0 0
ATOMIC_SPECIES
Fe  55.845  Fe.pbe-spn-kjpaw_psl.0.2.1.UPF
Na  22.98977  Na_ONCV_PBE-1.0.oncvpsp.upf
O  15.9994  O.pbe-n-kjpaw_psl.0.1.UPF
P  30.973761  P.pbe-n-rrkjus_psl.1.0.0.UPF
ATOMIC_POSITIONS {angstrom}
Na 4.4771213328 0.3032686819 1.4321632849
Fe 2.9359586378 3.967043372 4.8826031609
Fe 1.7906928954 1.5109969921 2.1020737165
Fe 7.4245856747 1.5153339417 0.2001602145
Fe 8.0539051994 4.7126231768 2.8171699944
P 1.016872288 4.668985918 2.2778008089
P 4.1649367817 1.8384235468 3.9916910569
P 9.1524722888 1.5444610979 2.9877593317
P 6.2030040812 4.4751603969 0.4855193298
O 1.5508130159 4.6277145149 3.7280995411
O 3.3948804952 1.9913657881 0.4168294785
O 8.8981100854 1.471014714 1.4732433956
O 6.5248865776 4.6055231144 3.9369688671
O 4.6546685724 4.5696116535 0.6669058041
O 0.2676859224 1.607041364 3.276216886
O 5.5950933766 1.3108001918 4.2274648983
O 9.8872447452 4.6143576418 2.2218722351
O 1.5650651061 5.8997384038 1.4803804141
O 3.3382211625 0.8235037423 3.150000703
O 8.4069682052 2.7349740709 3.6930591687
O 6.7767925596 3.1816315837 1.1324322935
O 8.4796353922 0.3197998671 3.7334404406
O 6.8803316303 5.6623851785 1.2875791964
O 1.6183042939 3.4351557141 1.4744432625
O 4.0272720127 3.2338533331 3.3374834804
CELL_PARAMETERS {angstrom}
10.4063 0 0
0 6.2187 0
0 0 4.9469
!End